    1C
    1UUSER                                                              
    1UDATE              12.september.2023                               
    1UTIME              13:15:03                                        
    1UHOST                                                              
    1UPGM               CalculiX                                        
    1UVERSION           Version 2.11                             
    1UCOMPILETIME       So 31. Jul 13:26:31 CEST 2016                    
    1UDIR                                                               
    1UDBN                                                               
    1UMAT    1EL                                                        
    2C                           396                                     1
 -1         1-3.20000E-01-5.00000E-01-1.00000E-01
 -1         2-3.20000E-01-5.00000E-01 1.00000E-01
 -1         3 3.20000E-01-5.00000E-01-1.00000E-01
 -1         4 3.20000E-01-5.00000E-01 1.00000E-01
 -1         5-3.19836E-01-4.89744E-01-1.00000E-01
 -1         6-3.19343E-01-4.79498E-01-1.00000E-01
 -1         7-3.18521E-01-4.69273E-01-1.00000E-01
 -1         8-3.17373E-01-4.59079E-01-1.00000E-01
 -1         9-3.15898E-01-4.48928E-01-1.00000E-01
 -1        10-3.14099E-01-4.38829E-01-1.00000E-01
 -1        11-3.11977E-01-4.28793E-01-1.00000E-01
 -1        12-3.09534E-01-4.18831E-01-1.00000E-01
 -1        13-3.06774E-01-4.08951E-01-1.00000E-01
 -1        14-3.03698E-01-3.99165E-01-1.00000E-01
 -1        15-3.00310E-01-3.89483E-01-1.00000E-01
 -1        16-2.96613E-01-3.79915E-01-1.00000E-01
 -1        17-2.92612E-01-3.70469E-01-1.00000E-01
 -1        18-2.88310E-01-3.61157E-01-1.00000E-01
 -1        19-2.83712E-01-3.51988E-01-1.00000E-01
 -1        20-2.78822E-01-3.42970E-01-1.00000E-01
 -1        21-2.73646E-01-3.34114E-01-1.00000E-01
 -1        22-2.68188E-01-3.25429E-01-1.00000E-01
 -1        23-2.62455E-01-3.16923E-01-1.00000E-01
 -1        24-2.56452E-01-3.08605E-01-1.00000E-01
 -1        25-2.50186E-01-3.00483E-01-1.00000E-01
 -1        26-2.43663E-01-2.92567E-01-1.00000E-01
 -1        27-2.36889E-01-2.84864E-01-1.00000E-01
 -1        28-2.29872E-01-2.77382E-01-1.00000E-01
 -1        29-2.22618E-01-2.70128E-01-1.00000E-01
 -1        30-2.15136E-01-2.63111E-01-1.00000E-01
 -1        31-2.07433E-01-2.56337E-01-1.00000E-01
 -1        32-1.99517E-01-2.49814E-01-1.00000E-01
 -1        33-1.91395E-01-2.43548E-01-1.00000E-01
 -1        34-1.83077E-01-2.37545E-01-1.00000E-01
 -1        35-1.74571E-01-2.31812E-01-1.00000E-01
 -1        36-1.65886E-01-2.26354E-01-1.00000E-01
 -1        37-1.57030E-01-2.21178E-01-1.00000E-01
 -1        38-1.48012E-01-2.16288E-01-1.00000E-01
 -1        39-1.38843E-01-2.11690E-01-1.00000E-01
 -1        40-1.29531E-01-2.07388E-01-1.00000E-01
 -1        41-1.20085E-01-2.03387E-01-1.00000E-01
 -1        42-1.10517E-01-1.99690E-01-1.00000E-01
 -1        43-1.00835E-01-1.96302E-01-1.00000E-01
 -1        44-9.10488E-02-1.93226E-01-1.00000E-01
 -1        45-8.11695E-02-1.90466E-01-1.00000E-01
 -1        46-7.12067E-02-1.88023E-01-1.00000E-01
 -1        47-6.11708E-02-1.85901E-01-1.00000E-01
 -1        48-5.10720E-02-1.84102E-01-1.00000E-01
 -1        49-4.09207E-02-1.82627E-01-1.00000E-01
 -1        50-3.07274E-02-1.81479E-01-1.00000E-01
 -1        51-2.05025E-02-1.80657E-01-1.00000E-01
 -1        52-1.02565E-02-1.80164E-01-1.00000E-01
 -1        53 4.06731E-16-1.80000E-01-1.00000E-01
 -1        54 1.02565E-02-1.80164E-01-1.00000E-01
 -1        55 2.05025E-02-1.80657E-01-1.00000E-01
 -1        56 3.07274E-02-1.81479E-01-1.00000E-01
 -1        57 4.09207E-02-1.82627E-01-1.00000E-01
 -1        58 5.10720E-02-1.84102E-01-1.00000E-01
 -1        59 6.11708E-02-1.85901E-01-1.00000E-01
 -1        60 7.12067E-02-1.88023E-01-1.00000E-01
 -1        61 8.11695E-02-1.90466E-01-1.00000E-01
 -1        62 9.10488E-02-1.93226E-01-1.00000E-01
 -1        63 1.00835E-01-1.96302E-01-1.00000E-01
 -1        64 1.10517E-01-1.99690E-01-1.00000E-01
 -1        65 1.20085E-01-2.03387E-01-1.00000E-01
 -1        66 1.29531E-01-2.07388E-01-1.00000E-01
 -1        67 1.38843E-01-2.11690E-01-1.00000E-01
 -1        68 1.48012E-01-2.16288E-01-1.00000E-01
 -1        69 1.57030E-01-2.21178E-01-1.00000E-01
 -1        70 1.65886E-01-2.26354E-01-1.00000E-01
 -1        71 1.74571E-01-2.31812E-01-1.00000E-01
 -1        72 1.83077E-01-2.37545E-01-1.00000E-01
 -1        73 1.91395E-01-2.43548E-01-1.00000E-01
 -1        74 1.99517E-01-2.49814E-01-1.00000E-01
 -1        75 2.07433E-01-2.56337E-01-1.00000E-01
 -1        76 2.15136E-01-2.63111E-01-1.00000E-01
 -1        77 2.22618E-01-2.70128E-01-1.00000E-01
 -1        78 2.29872E-01-2.77382E-01-1.00000E-01
 -1        79 2.36889E-01-2.84864E-01-1.00000E-01
 -1        80 2.43663E-01-2.92567E-01-1.00000E-01
 -1        81 2.50186E-01-3.00483E-01-1.00000E-01
 -1        82 2.56452E-01-3.08605E-01-1.00000E-01
 -1        83 2.62455E-01-3.16923E-01-1.00000E-01
 -1        84 2.68188E-01-3.25429E-01-1.00000E-01
 -1        85 2.73646E-01-3.34114E-01-1.00000E-01
 -1        86 2.78822E-01-3.42970E-01-1.00000E-01
 -1        87 2.83712E-01-3.51988E-01-1.00000E-01
 -1        88 2.88310E-01-3.61157E-01-1.00000E-01
 -1        89 2.92612E-01-3.70469E-01-1.00000E-01
 -1        90 2.96613E-01-3.79915E-01-1.00000E-01
 -1        91 3.00310E-01-3.89483E-01-1.00000E-01
 -1        92 3.03698E-01-3.99165E-01-1.00000E-01
 -1        93 3.06774E-01-4.08951E-01-1.00000E-01
 -1        94 3.09534E-01-4.18831E-01-1.00000E-01
 -1        95 3.11977E-01-4.28793E-01-1.00000E-01
 -1        96 3.14099E-01-4.38829E-01-1.00000E-01
 -1        97 3.15898E-01-4.48928E-01-1.00000E-01
 -1        98 3.17373E-01-4.59079E-01-1.00000E-01
 -1        99 3.18521E-01-4.69273E-01-1.00000E-01
 -1       100 3.19343E-01-4.79498E-01-1.00000E-01
 -1       101 3.19836E-01-4.89744E-01-1.00000E-01
 -1       102-3.19836E-01-4.89744E-01 1.00000E-01
 -1       103-3.19343E-01-4.79498E-01 1.00000E-01
 -1       104-3.18521E-01-4.69273E-01 1.00000E-01
 -1       105-3.17373E-01-4.59079E-01 1.00000E-01
 -1       106-3.15898E-01-4.48928E-01 1.00000E-01
 -1       107-3.14099E-01-4.38829E-01 1.00000E-01
 -1       108-3.11977E-01-4.28793E-01 1.00000E-01
 -1       109-3.09534E-01-4.18831E-01 1.00000E-01
 -1       110-3.06774E-01-4.08951E-01 1.00000E-01
 -1       111-3.03698E-01-3.99165E-01 1.00000E-01
 -1       112-3.00310E-01-3.89483E-01 1.00000E-01
 -1       113-2.96613E-01-3.79915E-01 1.00000E-01
 -1       114-2.92612E-01-3.70469E-01 1.00000E-01
 -1       115-2.88310E-01-3.61157E-01 1.00000E-01
 -1       116-2.83712E-01-3.51988E-01 1.00000E-01
 -1       117-2.78822E-01-3.42970E-01 1.00000E-01
 -1       118-2.73646E-01-3.34114E-01 1.00000E-01
 -1       119-2.68188E-01-3.25429E-01 1.00000E-01
 -1       120-2.62455E-01-3.16923E-01 1.00000E-01
 -1       121-2.56452E-01-3.08605E-01 1.00000E-01
 -1       122-2.50186E-01-3.00483E-01 1.00000E-01
 -1       123-2.43663E-01-2.92567E-01 1.00000E-01
 -1       124-2.36889E-01-2.84864E-01 1.00000E-01
 -1       125-2.29872E-01-2.77382E-01 1.00000E-01
 -1       126-2.22618E-01-2.70128E-01 1.00000E-01
 -1       127-2.15136E-01-2.63111E-01 1.00000E-01
 -1       128-2.07433E-01-2.56337E-01 1.00000E-01
 -1       129-1.99517E-01-2.49814E-01 1.00000E-01
 -1       130-1.91395E-01-2.43548E-01 1.00000E-01
 -1       131-1.83077E-01-2.37545E-01 1.00000E-01
 -1       132-1.74571E-01-2.31812E-01 1.00000E-01
 -1       133-1.65886E-01-2.26354E-01 1.00000E-01
 -1       134-1.57030E-01-2.21178E-01 1.00000E-01
 -1       135-1.48012E-01-2.16288E-01 1.00000E-01
 -1       136-1.38843E-01-2.11690E-01 1.00000E-01
 -1       137-1.29531E-01-2.07388E-01 1.00000E-01
 -1       138-1.20085E-01-2.03387E-01 1.00000E-01
 -1       139-1.10517E-01-1.99690E-01 1.00000E-01
 -1       140-1.00835E-01-1.96302E-01 1.00000E-01
 -1       141-9.10488E-02-1.93226E-01 1.00000E-01
 -1       142-8.11695E-02-1.90466E-01 1.00000E-01
 -1       143-7.12067E-02-1.88023E-01 1.00000E-01
 -1       144-6.11708E-02-1.85901E-01 1.00000E-01
 -1       145-5.10720E-02-1.84102E-01 1.00000E-01
 -1       146-4.09207E-02-1.82627E-01 1.00000E-01
 -1       147-3.07274E-02-1.81479E-01 1.00000E-01
 -1       148-2.05025E-02-1.80657E-01 1.00000E-01
 -1       149-1.02565E-02-1.80164E-01 1.00000E-01
 -1       150 4.06731E-16-1.80000E-01 1.00000E-01
 -1       151 1.02565E-02-1.80164E-01 1.00000E-01
 -1       152 2.05025E-02-1.80657E-01 1.00000E-01
 -1       153 3.07274E-02-1.81479E-01 1.00000E-01
 -1       154 4.09207E-02-1.82627E-01 1.00000E-01
 -1       155 5.10720E-02-1.84102E-01 1.00000E-01
 -1       156 6.11708E-02-1.85901E-01 1.00000E-01
 -1       157 7.12067E-02-1.88023E-01 1.00000E-01
 -1       158 8.11695E-02-1.90466E-01 1.00000E-01
 -1       159 9.10488E-02-1.93226E-01 1.00000E-01
 -1       160 1.00835E-01-1.96302E-01 1.00000E-01
 -1       161 1.10517E-01-1.99690E-01 1.00000E-01
 -1       162 1.20085E-01-2.03387E-01 1.00000E-01
 -1       163 1.29531E-01-2.07388E-01 1.00000E-01
 -1       164 1.38843E-01-2.11690E-01 1.00000E-01
 -1       165 1.48012E-01-2.16288E-01 1.00000E-01
 -1       166 1.57030E-01-2.21178E-01 1.00000E-01
 -1       167 1.65886E-01-2.26354E-01 1.00000E-01
 -1       168 1.74571E-01-2.31812E-01 1.00000E-01
 -1       169 1.83077E-01-2.37545E-01 1.00000E-01
 -1       170 1.91395E-01-2.43548E-01 1.00000E-01
 -1       171 1.99517E-01-2.49814E-01 1.00000E-01
 -1       172 2.07433E-01-2.56337E-01 1.00000E-01
 -1       173 2.15136E-01-2.63111E-01 1.00000E-01
 -1       174 2.22618E-01-2.70128E-01 1.00000E-01
 -1       175 2.29872E-01-2.77382E-01 1.00000E-01
 -1       176 2.36889E-01-2.84864E-01 1.00000E-01
 -1       177 2.43663E-01-2.92567E-01 1.00000E-01
 -1       178 2.50186E-01-3.00483E-01 1.00000E-01
 -1       179 2.56452E-01-3.08605E-01 1.00000E-01
 -1       180 2.62455E-01-3.16923E-01 1.00000E-01
 -1       181 2.68188E-01-3.25429E-01 1.00000E-01
 -1       182 2.73646E-01-3.34114E-01 1.00000E-01
 -1       183 2.78822E-01-3.42970E-01 1.00000E-01
 -1       184 2.83712E-01-3.51988E-01 1.00000E-01
 -1       185 2.88310E-01-3.61157E-01 1.00000E-01
 -1       186 2.92612E-01-3.70469E-01 1.00000E-01
 -1       187 2.96613E-01-3.79915E-01 1.00000E-01
 -1       188 3.00310E-01-3.89483E-01 1.00000E-01
 -1       189 3.03698E-01-3.99165E-01 1.00000E-01
 -1       190 3.06774E-01-4.08951E-01 1.00000E-01
 -1       191 3.09534E-01-4.18831E-01 1.00000E-01
 -1       192 3.11977E-01-4.28793E-01 1.00000E-01
 -1       193 3.14099E-01-4.38829E-01 1.00000E-01
 -1       194 3.15898E-01-4.48928E-01 1.00000E-01
 -1       195 3.17373E-01-4.59079E-01 1.00000E-01
 -1       196 3.18521E-01-4.69273E-01 1.00000E-01
 -1       197 3.19343E-01-4.79498E-01 1.00000E-01
 -1       198 3.19836E-01-4.89744E-01 1.00000E-01
 -1       199 3.00000E-01-5.00000E-01-1.00000E-01
 -1       200 3.00000E-01-5.00000E-01 1.00000E-01
 -1       201-3.00000E-01-5.00000E-01-1.00000E-01
 -1       202-3.00000E-01-5.00000E-01 1.00000E-01
 -1       203-2.99846E-01-4.90385E-01-1.00000E-01
 -1       204-2.99384E-01-4.80779E-01-1.00000E-01
 -1       205-2.98614E-01-4.71193E-01-1.00000E-01
 -1       206-2.97537E-01-4.61637E-01-1.00000E-01
 -1       207-2.96155E-01-4.52120E-01-1.00000E-01
 -1       208-2.94468E-01-4.42652E-01-1.00000E-01
 -1       209-2.92478E-01-4.33244E-01-1.00000E-01
 -1       210-2.90188E-01-4.23904E-01-1.00000E-01
 -1       211-2.87600E-01-4.14642E-01-1.00000E-01
 -1       212-2.84717E-01-4.05468E-01-1.00000E-01
 -1       213-2.81541E-01-3.96390E-01-1.00000E-01
 -1       214-2.78075E-01-3.87420E-01-1.00000E-01
 -1       215-2.74324E-01-3.78565E-01-1.00000E-01
 -1       216-2.70291E-01-3.69835E-01-1.00000E-01
 -1       217-2.65980E-01-3.61239E-01-1.00000E-01
 -1       218-2.61396E-01-3.52785E-01-1.00000E-01
 -1       219-2.56543E-01-3.44482E-01-1.00000E-01
 -1       220-2.51426E-01-3.36340E-01-1.00000E-01
 -1       221-2.46052E-01-3.28365E-01-1.00000E-01
 -1       222-2.40424E-01-3.20567E-01-1.00000E-01
 -1       223-2.34549E-01-3.12953E-01-1.00000E-01
 -1       224-2.28434E-01-3.05531E-01-1.00000E-01
 -1       225-2.22083E-01-2.98310E-01-1.00000E-01
 -1       226-2.15505E-01-2.91295E-01-1.00000E-01
 -1       227-2.08705E-01-2.84495E-01-1.00000E-01
 -1       228-2.01690E-01-2.77917E-01-1.00000E-01
 -1       229-1.94469E-01-2.71566E-01-1.00000E-01
 -1       230-1.87047E-01-2.65451E-01-1.00000E-01
 -1       231-1.79433E-01-2.59576E-01-1.00000E-01
 -1       232-1.71635E-01-2.53948E-01-1.00000E-01
 -1       233-1.63660E-01-2.48574E-01-1.00000E-01
 -1       234-1.55518E-01-2.43457E-01-1.00000E-01
 -1       235-1.47215E-01-2.38604E-01-1.00000E-01
 -1       236-1.38761E-01-2.34020E-01-1.00000E-01
 -1       237-1.30165E-01-2.29709E-01-1.00000E-01
 -1       238-1.21435E-01-2.25676E-01-1.00000E-01
 -1       239-1.12580E-01-2.21925E-01-1.00000E-01
 -1       240-1.03610E-01-2.18459E-01-1.00000E-01
 -1       241-9.45325E-02-2.15283E-01-1.00000E-01
 -1       242-8.53583E-02-2.12400E-01-1.00000E-01
 -1       243-7.60964E-02-2.09812E-01-1.00000E-01
 -1       244-6.67563E-02-2.07522E-01-1.00000E-01
 -1       245-5.73476E-02-2.05532E-01-1.00000E-01
 -1       246-4.78800E-02-2.03845E-01-1.00000E-01
 -1       247-3.83631E-02-2.02463E-01-1.00000E-01
 -1       248-2.88069E-02-2.01386E-01-1.00000E-01
 -1       249-1.92211E-02-2.00616E-01-1.00000E-01
 -1       250-9.61547E-03-2.00154E-01-1.00000E-01
 -1       251 3.81311E-16-2.00000E-01-1.00000E-01
 -1       252 9.61547E-03-2.00154E-01-1.00000E-01
 -1       253 1.92211E-02-2.00616E-01-1.00000E-01
 -1       254 2.88069E-02-2.01386E-01-1.00000E-01
 -1       255 3.83631E-02-2.02463E-01-1.00000E-01
 -1       256 4.78800E-02-2.03845E-01-1.00000E-01
 -1       257 5.73476E-02-2.05532E-01-1.00000E-01
 -1       258 6.67563E-02-2.07522E-01-1.00000E-01
 -1       259 7.60964E-02-2.09812E-01-1.00000E-01
 -1       260 8.53583E-02-2.12400E-01-1.00000E-01
 -1       261 9.45325E-02-2.15283E-01-1.00000E-01
 -1       262 1.03610E-01-2.18459E-01-1.00000E-01
 -1       263 1.12580E-01-2.21925E-01-1.00000E-01
 -1       264 1.21435E-01-2.25676E-01-1.00000E-01
 -1       265 1.30165E-01-2.29709E-01-1.00000E-01
 -1       266 1.38761E-01-2.34020E-01-1.00000E-01
 -1       267 1.47215E-01-2.38604E-01-1.00000E-01
 -1       268 1.55518E-01-2.43457E-01-1.00000E-01
 -1       269 1.63660E-01-2.48574E-01-1.00000E-01
 -1       270 1.71635E-01-2.53948E-01-1.00000E-01
 -1       271 1.79433E-01-2.59576E-01-1.00000E-01
 -1       272 1.87047E-01-2.65451E-01-1.00000E-01
 -1       273 1.94469E-01-2.71566E-01-1.00000E-01
 -1       274 2.01690E-01-2.77917E-01-1.00000E-01
 -1       275 2.08705E-01-2.84495E-01-1.00000E-01
 -1       276 2.15505E-01-2.91295E-01-1.00000E-01
 -1       277 2.22083E-01-2.98310E-01-1.00000E-01
 -1       278 2.28434E-01-3.05531E-01-1.00000E-01
 -1       279 2.34549E-01-3.12953E-01-1.00000E-01
 -1       280 2.40424E-01-3.20567E-01-1.00000E-01
 -1       281 2.46052E-01-3.28365E-01-1.00000E-01
 -1       282 2.51426E-01-3.36340E-01-1.00000E-01
 -1       283 2.56543E-01-3.44482E-01-1.00000E-01
 -1       284 2.61396E-01-3.52785E-01-1.00000E-01
 -1       285 2.65980E-01-3.61239E-01-1.00000E-01
 -1       286 2.70291E-01-3.69835E-01-1.00000E-01
 -1       287 2.74324E-01-3.78565E-01-1.00000E-01
 -1       288 2.78075E-01-3.87420E-01-1.00000E-01
 -1       289 2.81541E-01-3.96390E-01-1.00000E-01
 -1       290 2.84717E-01-4.05468E-01-1.00000E-01
 -1       291 2.87600E-01-4.14642E-01-1.00000E-01
 -1       292 2.90188E-01-4.23904E-01-1.00000E-01
 -1       293 2.92478E-01-4.33244E-01-1.00000E-01
 -1       294 2.94468E-01-4.42652E-01-1.00000E-01
 -1       295 2.96155E-01-4.52120E-01-1.00000E-01
 -1       296 2.97537E-01-4.61637E-01-1.00000E-01
 -1       297 2.98614E-01-4.71193E-01-1.00000E-01
 -1       298 2.99384E-01-4.80779E-01-1.00000E-01
 -1       299 2.99846E-01-4.90385E-01-1.00000E-01
 -1       300-2.99846E-01-4.90385E-01 1.00000E-01
 -1       301-2.99384E-01-4.80779E-01 1.00000E-01
 -1       302-2.98614E-01-4.71193E-01 1.00000E-01
 -1       303-2.97537E-01-4.61637E-01 1.00000E-01
 -1       304-2.96155E-01-4.52120E-01 1.00000E-01
 -1       305-2.94468E-01-4.42652E-01 1.00000E-01
 -1       306-2.92478E-01-4.33244E-01 1.00000E-01
 -1       307-2.90188E-01-4.23904E-01 1.00000E-01
 -1       308-2.87600E-01-4.14642E-01 1.00000E-01
 -1       309-2.84717E-01-4.05468E-01 1.00000E-01
 -1       310-2.81541E-01-3.96390E-01 1.00000E-01
 -1       311-2.78075E-01-3.87420E-01 1.00000E-01
 -1       312-2.74324E-01-3.78565E-01 1.00000E-01
 -1       313-2.70291E-01-3.69835E-01 1.00000E-01
 -1       314-2.65980E-01-3.61239E-01 1.00000E-01
 -1       315-2.61396E-01-3.52785E-01 1.00000E-01
 -1       316-2.56543E-01-3.44482E-01 1.00000E-01
 -1       317-2.51426E-01-3.36340E-01 1.00000E-01
 -1       318-2.46052E-01-3.28365E-01 1.00000E-01
 -1       319-2.40424E-01-3.20567E-01 1.00000E-01
 -1       320-2.34549E-01-3.12953E-01 1.00000E-01
 -1       321-2.28434E-01-3.05531E-01 1.00000E-01
 -1       322-2.22083E-01-2.98310E-01 1.00000E-01
 -1       323-2.15505E-01-2.91295E-01 1.00000E-01
 -1       324-2.08705E-01-2.84495E-01 1.00000E-01
 -1       325-2.01690E-01-2.77917E-01 1.00000E-01
 -1       326-1.94469E-01-2.71566E-01 1.00000E-01
 -1       327-1.87047E-01-2.65451E-01 1.00000E-01
 -1       328-1.79433E-01-2.59576E-01 1.00000E-01
 -1       329-1.71635E-01-2.53948E-01 1.00000E-01
 -1       330-1.63660E-01-2.48574E-01 1.00000E-01
 -1       331-1.55518E-01-2.43457E-01 1.00000E-01
 -1       332-1.47215E-01-2.38604E-01 1.00000E-01
 -1       333-1.38761E-01-2.34020E-01 1.00000E-01
 -1       334-1.30165E-01-2.29709E-01 1.00000E-01
 -1       335-1.21435E-01-2.25676E-01 1.00000E-01
 -1       336-1.12580E-01-2.21925E-01 1.00000E-01
 -1       337-1.03610E-01-2.18459E-01 1.00000E-01
 -1       338-9.45325E-02-2.15283E-01 1.00000E-01
 -1       339-8.53583E-02-2.12400E-01 1.00000E-01
 -1       340-7.60964E-02-2.09812E-01 1.00000E-01
 -1       341-6.67563E-02-2.07522E-01 1.00000E-01
 -1       342-5.73476E-02-2.05532E-01 1.00000E-01
 -1       343-4.78800E-02-2.03845E-01 1.00000E-01
 -1       344-3.83631E-02-2.02463E-01 1.00000E-01
 -1       345-2.88069E-02-2.01386E-01 1.00000E-01
 -1       346-1.92211E-02-2.00616E-01 1.00000E-01
 -1       347-9.61547E-03-2.00154E-01 1.00000E-01
 -1       348 3.81311E-16-2.00000E-01 1.00000E-01
 -1       349 9.61547E-03-2.00154E-01 1.00000E-01
 -1       350 1.92211E-02-2.00616E-01 1.00000E-01
 -1       351 2.88069E-02-2.01386E-01 1.00000E-01
 -1       352 3.83631E-02-2.02463E-01 1.00000E-01
 -1       353 4.78800E-02-2.03845E-01 1.00000E-01
 -1       354 5.73476E-02-2.05532E-01 1.00000E-01
 -1       355 6.67563E-02-2.07522E-01 1.00000E-01
 -1       356 7.60964E-02-2.09812E-01 1.00000E-01
 -1       357 8.53583E-02-2.12400E-01 1.00000E-01
 -1       358 9.45325E-02-2.15283E-01 1.00000E-01
 -1       359 1.03610E-01-2.18459E-01 1.00000E-01
 -1       360 1.12580E-01-2.21925E-01 1.00000E-01
 -1       361 1.21435E-01-2.25676E-01 1.00000E-01
 -1       362 1.30165E-01-2.29709E-01 1.00000E-01
 -1       363 1.38761E-01-2.34020E-01 1.00000E-01
 -1       364 1.47215E-01-2.38604E-01 1.00000E-01
 -1       365 1.55518E-01-2.43457E-01 1.00000E-01
 -1       366 1.63660E-01-2.48574E-01 1.00000E-01
 -1       367 1.71635E-01-2.53948E-01 1.00000E-01
 -1       368 1.79433E-01-2.59576E-01 1.00000E-01
 -1       369 1.87047E-01-2.65451E-01 1.00000E-01
 -1       370 1.94469E-01-2.71566E-01 1.00000E-01
 -1       371 2.01690E-01-2.77917E-01 1.00000E-01
 -1       372 2.08705E-01-2.84495E-01 1.00000E-01
 -1       373 2.15505E-01-2.91295E-01 1.00000E-01
 -1       374 2.22083E-01-2.98310E-01 1.00000E-01
 -1       375 2.28434E-01-3.05531E-01 1.00000E-01
 -1       376 2.34549E-01-3.12953E-01 1.00000E-01
 -1       377 2.40424E-01-3.20567E-01 1.00000E-01
 -1       378 2.46052E-01-3.28365E-01 1.00000E-01
 -1       379 2.51426E-01-3.36340E-01 1.00000E-01
 -1       380 2.56543E-01-3.44482E-01 1.00000E-01
 -1       381 2.61396E-01-3.52785E-01 1.00000E-01
 -1       382 2.65980E-01-3.61239E-01 1.00000E-01
 -1       383 2.70291E-01-3.69835E-01 1.00000E-01
 -1       384 2.74324E-01-3.78565E-01 1.00000E-01
 -1       385 2.78075E-01-3.87420E-01 1.00000E-01
 -1       386 2.81541E-01-3.96390E-01 1.00000E-01
 -1       387 2.84717E-01-4.05468E-01 1.00000E-01
 -1       388 2.87600E-01-4.14642E-01 1.00000E-01
 -1       389 2.90188E-01-4.23904E-01 1.00000E-01
 -1       390 2.92478E-01-4.33244E-01 1.00000E-01
 -1       391 2.94468E-01-4.42652E-01 1.00000E-01
 -1       392 2.96155E-01-4.52120E-01 1.00000E-01
 -1       393 2.97537E-01-4.61637E-01 1.00000E-01
 -1       394 2.98614E-01-4.71193E-01 1.00000E-01
 -1       395 2.99384E-01-4.80779E-01 1.00000E-01
 -1       396 2.99846E-01-4.90385E-01 1.00000E-01
 -3
    3C                            98                                     1
 -1       795    1    0    1
 -2         1         5       102         2       201       203       300       202
 -1       796    1    0    1
 -2         5         6       103       102       203       204       301       300
 -1       797    1    0    1
 -2         6         7       104       103       204       205       302       301
 -1       798    1    0    1
 -2         7         8       105       104       205       206       303       302
 -1       799    1    0    1
 -2         8         9       106       105       206       207       304       303
 -1       800    1    0    1
 -2         9        10       107       106       207       208       305       304
 -1       801    1    0    1
 -2        10        11       108       107       208       209       306       305
 -1       802    1    0    1
 -2        11        12       109       108       209       210       307       306
 -1       803    1    0    1
 -2        12        13       110       109       210       211       308       307
 -1       804    1    0    1
 -2        13        14       111       110       211       212       309       308
 -1       805    1    0    1
 -2        14        15       112       111       212       213       310       309
 -1       806    1    0    1
 -2        15        16       113       112       213       214       311       310
 -1       807    1    0    1
 -2        16        17       114       113       214       215       312       311
 -1       808    1    0    1
 -2        17        18       115       114       215       216       313       312
 -1       809    1    0    1
 -2        18        19       116       115       216       217       314       313
 -1       810    1    0    1
 -2        19        20       117       116       217       218       315       314
 -1       811    1    0    1
 -2        20        21       118       117       218       219       316       315
 -1       812    1    0    1
 -2        21        22       119       118       219       220       317       316
 -1       813    1    0    1
 -2        22        23       120       119       220       221       318       317
 -1       814    1    0    1
 -2        23        24       121       120       221       222       319       318
 -1       815    1    0    1
 -2        24        25       122       121       222       223       320       319
 -1       816    1    0    1
 -2        25        26       123       122       223       224       321       320
 -1       817    1    0    1
 -2        26        27       124       123       224       225       322       321
 -1       818    1    0    1
 -2        27        28       125       124       225       226       323       322
 -1       819    1    0    1
 -2        28        29       126       125       226       227       324       323
 -1       820    1    0    1
 -2        29        30       127       126       227       228       325       324
 -1       821    1    0    1
 -2        30        31       128       127       228       229       326       325
 -1       822    1    0    1
 -2        31        32       129       128       229       230       327       326
 -1       823    1    0    1
 -2        32        33       130       129       230       231       328       327
 -1       824    1    0    1
 -2        33        34       131       130       231       232       329       328
 -1       825    1    0    1
 -2        34        35       132       131       232       233       330       329
 -1       826    1    0    1
 -2        35        36       133       132       233       234       331       330
 -1       827    1    0    1
 -2        36        37       134       133       234       235       332       331
 -1       828    1    0    1
 -2        37        38       135       134       235       236       333       332
 -1       829    1    0    1
 -2        38        39       136       135       236       237       334       333
 -1       830    1    0    1
 -2        39        40       137       136       237       238       335       334
 -1       831    1    0    1
 -2        40        41       138       137       238       239       336       335
 -1       832    1    0    1
 -2        41        42       139       138       239       240       337       336
 -1       833    1    0    1
 -2        42        43       140       139       240       241       338       337
 -1       834    1    0    1
 -2        43        44       141       140       241       242       339       338
 -1       835    1    0    1
 -2        44        45       142       141       242       243       340       339
 -1       836    1    0    1
 -2        45        46       143       142       243       244       341       340
 -1       837    1    0    1
 -2        46        47       144       143       244       245       342       341
 -1       838    1    0    1
 -2        47        48       145       144       245       246       343       342
 -1       839    1    0    1
 -2        48        49       146       145       246       247       344       343
 -1       840    1    0    1
 -2        49        50       147       146       247       248       345       344
 -1       841    1    0    1
 -2        50        51       148       147       248       249       346       345
 -1       842    1    0    1
 -2        51        52       149       148       249       250       347       346
 -1       843    1    0    1
 -2        52        53       150       149       250       251       348       347
 -1       844    1    0    1
 -2        53        54       151       150       251       252       349       348
 -1       845    1    0    1
 -2        54        55       152       151       252       253       350       349
 -1       846    1    0    1
 -2        55        56       153       152       253       254       351       350
 -1       847    1    0    1
 -2        56        57       154       153       254       255       352       351
 -1       848    1    0    1
 -2        57        58       155       154       255       256       353       352
 -1       849    1    0    1
 -2        58        59       156       155       256       257       354       353
 -1       850    1    0    1
 -2        59        60       157       156       257       258       355       354
 -1       851    1    0    1
 -2        60        61       158       157       258       259       356       355
 -1       852    1    0    1
 -2        61        62       159       158       259       260       357       356
 -1       853    1    0    1
 -2        62        63       160       159       260       261       358       357
 -1       854    1    0    1
 -2        63        64       161       160       261       262       359       358
 -1       855    1    0    1
 -2        64        65       162       161       262       263       360       359
 -1       856    1    0    1
 -2        65        66       163       162       263       264       361       360
 -1       857    1    0    1
 -2        66        67       164       163       264       265       362       361
 -1       858    1    0    1
 -2        67        68       165       164       265       266       363       362
 -1       859    1    0    1
 -2        68        69       166       165       266       267       364       363
 -1       860    1    0    1
 -2        69        70       167       166       267       268       365       364
 -1       861    1    0    1
 -2        70        71       168       167       268       269       366       365
 -1       862    1    0    1
 -2        71        72       169       168       269       270       367       366
 -1       863    1    0    1
 -2        72        73       170       169       270       271       368       367
 -1       864    1    0    1
 -2        73        74       171       170       271       272       369       368
 -1       865    1    0    1
 -2        74        75       172       171       272       273       370       369
 -1       866    1    0    1
 -2        75        76       173       172       273       274       371       370
 -1       867    1    0    1
 -2        76        77       174       173       274       275       372       371
 -1       868    1    0    1
 -2        77        78       175       174       275       276       373       372
 -1       869    1    0    1
 -2        78        79       176       175       276       277       374       373
 -1       870    1    0    1
 -2        79        80       177       176       277       278       375       374
 -1       871    1    0    1
 -2        80        81       178       177       278       279       376       375
 -1       872    1    0    1
 -2        81        82       179       178       279       280       377       376
 -1       873    1    0    1
 -2        82        83       180       179       280       281       378       377
 -1       874    1    0    1
 -2        83        84       181       180       281       282       379       378
 -1       875    1    0    1
 -2        84        85       182       181       282       283       380       379
 -1       876    1    0    1
 -2        85        86       183       182       283       284       381       380
 -1       877    1    0    1
 -2        86        87       184       183       284       285       382       381
 -1       878    1    0    1
 -2        87        88       185       184       285       286       383       382
 -1       879    1    0    1
 -2        88        89       186       185       286       287       384       383
 -1       880    1    0    1
 -2        89        90       187       186       287       288       385       384
 -1       881    1    0    1
 -2        90        91       188       187       288       289       386       385
 -1       882    1    0    1
 -2        91        92       189       188       289       290       387       386
 -1       883    1    0    1
 -2        92        93       190       189       290       291       388       387
 -1       884    1    0    1
 -2        93        94       191       190       291       292       389       388
 -1       885    1    0    1
 -2        94        95       192       191       292       293       390       389
 -1       886    1    0    1
 -2        95        96       193       192       293       294       391       390
 -1       887    1    0    1
 -2        96        97       194       193       294       295       392       391
 -1       888    1    0    1
 -2        97        98       195       194       295       296       393       392
 -1       889    1    0    1
 -2        98        99       196       195       296       297       394       393
 -1       890    1    0    1
 -2        99       100       197       196       297       298       395       394
 -1       891    1    0    1
 -2       100       101       198       197       298       299       396       395
 -1       892    1    0    1
 -2       101         3         4       198       299       199       200       396
 -3
    1PSTEP                         1          17           1          
  100CL  101 1.000000000         396                     0    1           1
 -4  DISP        4    1
 -5  D1          1    2    1    0
 -5  D2          1    2    2    0
 -5  D3          1    2    3    0
 -5  ALL         1    2    0    0    1ALL
 -1         1 0.00000E+00 0.00000E+00 0.00000E+00
 -1         2 0.00000E+00 0.00000E+00 0.00000E+00
 -1         3 0.00000E+00 0.00000E+00 0.00000E+00
 -1         4 0.00000E+00 0.00000E+00 0.00000E+00
 -1         5 1.90000E-05 2.05000E-05 0.00000E+00
 -1         6 5.16000E-05 3.69000E-05 0.00000E+00
 -1         7 9.84000E-05 4.77000E-05 0.00000E+00
 -1         8 1.55765E-04 5.26000E-05 0.00000E+00
 -1         9 2.20297E-04 5.19000E-05 0.00000E+00
 -1        10 2.89065E-04 4.56000E-05 0.00000E+00
 -1        11 3.59408E-04 3.44000E-05 0.00000E+00
 -1        12 4.28981E-04 1.89000E-05 0.00000E+00
 -1        13 4.95748E-04-1.59000E-07 0.00000E+00
 -1        14 5.57977E-04-2.18000E-05 0.00000E+00
 -1        15 6.14232E-04-4.50000E-05 0.00000E+00
 -1        16 6.63367E-04-6.89000E-05 0.00000E+00
 -1        17 7.04508E-04-9.23000E-05 0.00000E+00
 -1        18 7.37045E-04-1.14301E-04 0.00000E+00
 -1        19 7.60611E-04-1.33832E-04 0.00000E+00
 -1        20 7.75071E-04-1.49988E-04 0.00000E+00
 -1        21 7.80498E-04-1.61911E-04 0.00000E+00
 -1        22 7.77159E-04-1.68837E-04 0.00000E+00
 -1        23 7.65491E-04-1.70109E-04 0.00000E+00
 -1        24 7.46081E-04-1.65193E-04 0.00000E+00
 -1        25 7.19646E-04-1.53686E-04 0.00000E+00
 -1        26 6.87023E-04-1.35351E-04 0.00000E+00
 -1        27 6.49098E-04-1.10084E-04 0.00000E+00
 -1        28 6.06772E-04-7.79000E-05 0.00000E+00
 -1        29 5.60970E-04-3.89000E-05 0.00000E+00
 -1        30 5.12615E-04 6.64000E-06 0.00000E+00
 -1        31 4.62621E-04 5.84000E-05 0.00000E+00
 -1        32 4.11873E-04 1.15876E-04 0.00000E+00
 -1        33 3.61216E-04 1.78581E-04 0.00000E+00
 -1        34 3.11444E-04 2.45865E-04 0.00000E+00
 -1        35 2.63287E-04 3.17025E-04 0.00000E+00
 -1        36 2.17405E-04 3.91292E-04 0.00000E+00
 -1        37 1.74377E-04 4.67845E-04 0.00000E+00
 -1        38 1.34699E-04 5.45823E-04 0.00000E+00
 -1        39 9.88000E-05 6.24334E-04 0.00000E+00
 -1        40 6.69000E-05 7.02472E-04 0.00000E+00
 -1        41 3.93000E-05 7.79323E-04 0.00000E+00
 -1        42 1.62000E-05 8.53985E-04 0.00000E+00
 -1        43-2.60000E-06 9.25575E-04 0.00000E+00
 -1        44-1.70000E-05 9.93241E-04 0.00000E+00
 -1        45-2.72000E-05 1.05618E-03 0.00000E+00
 -1        46-3.34000E-05 1.11363E-03 0.00000E+00
 -1        47-3.60000E-05 1.16490E-03 0.00000E+00
 -1        48-3.53000E-05 1.20939E-03 0.00000E+00
 -1        49-3.17000E-05 1.24654E-03 0.00000E+00
 -1        50-2.59000E-05 1.27592E-03 0.00000E+00
 -1        51-1.83000E-05 1.29716E-03 0.00000E+00
 -1        52-9.43000E-06 1.31001E-03 0.00000E+00
 -1        53 1.19000E-08 1.31431E-03 0.00000E+00
 -1        54 9.46000E-06 1.31001E-03 0.00000E+00
 -1        55 1.83000E-05 1.29716E-03 0.00000E+00
 -1        56 2.59000E-05 1.27592E-03 0.00000E+00
 -1        57 3.18000E-05 1.24655E-03 0.00000E+00
 -1        58 3.53000E-05 1.20940E-03 0.00000E+00
 -1        59 3.60000E-05 1.16492E-03 0.00000E+00
 -1        60 3.34000E-05 1.11364E-03 0.00000E+00
 -1        61 2.72000E-05 1.05619E-03 0.00000E+00
 -1        62 1.70000E-05 9.93258E-04 0.00000E+00
 -1        63 2.63000E-06 9.25592E-04 0.00000E+00
 -1        64-1.61000E-05 8.54003E-04 0.00000E+00
 -1        65-3.93000E-05 7.79342E-04 0.00000E+00
 -1        66-6.69000E-05 7.02491E-04 0.00000E+00
 -1        67-9.87000E-05 6.24354E-04 0.00000E+00
 -1        68-1.34670E-04 5.45842E-04 0.00000E+00
 -1        69-1.74348E-04 4.67864E-04 0.00000E+00
 -1        70-2.17375E-04 3.91310E-04 0.00000E+00
 -1        71-2.63258E-04 3.17043E-04 0.00000E+00
 -1        72-3.11415E-04 2.45882E-04 0.00000E+00
 -1        73-3.61188E-04 1.78597E-04 0.00000E+00
 -1        74-4.11845E-04 1.15891E-04 0.00000E+00
 -1        75-4.62594E-04 5.84000E-05 0.00000E+00
 -1        76-5.12589E-04 6.65000E-06 0.00000E+00
 -1        77-5.60944E-04-3.89000E-05 0.00000E+00
 -1        78-6.06748E-04-7.79000E-05 0.00000E+00
 -1        79-6.49074E-04-1.10074E-04 0.00000E+00
 -1        80-6.87001E-04-1.35343E-04 0.00000E+00
 -1        81-7.19624E-04-1.53678E-04 0.00000E+00
 -1        82-7.46061E-04-1.65186E-04 0.00000E+00
 -1        83-7.65472E-04-1.70104E-04 0.00000E+00
 -1        84-7.77142E-04-1.68832E-04 0.00000E+00
 -1        85-7.80483E-04-1.61907E-04 0.00000E+00
 -1        86-7.75057E-04-1.49985E-04 0.00000E+00
 -1        87-7.60599E-04-1.33830E-04 0.00000E+00
 -1        88-7.37033E-04-1.14299E-04 0.00000E+00
 -1        89-7.04498E-04-9.23000E-05 0.00000E+00
 -1        90-6.63358E-04-6.89000E-05 0.00000E+00
 -1        91-6.14225E-04-4.50000E-05 0.00000E+00
 -1        92-5.57970E-04-2.18000E-05 0.00000E+00
 -1        93-4.95743E-04-1.59000E-07 0.00000E+00
 -1        94-4.28977E-04 1.89000E-05 0.00000E+00
 -1        95-3.59405E-04 3.44000E-05 0.00000E+00
 -1        96-2.89062E-04 4.56000E-05 0.00000E+00
 -1        97-2.20296E-04 5.19000E-05 0.00000E+00
 -1        98-1.55764E-04 5.26000E-05 0.00000E+00
 -1        99-9.84000E-05 4.77000E-05 0.00000E+00
 -1       100-5.16000E-05 3.69000E-05 0.00000E+00
 -1       101-1.90000E-05 2.05000E-05 0.00000E+00
 -1       102 1.90000E-05 2.05000E-05 0.00000E+00
 -1       103 5.16000E-05 3.69000E-05 0.00000E+00
 -1       104 9.84000E-05 4.77000E-05 0.00000E+00
 -1       105 1.55765E-04 5.26000E-05 0.00000E+00
 -1       106 2.20297E-04 5.19000E-05 0.00000E+00
 -1       107 2.89065E-04 4.56000E-05 0.00000E+00
 -1       108 3.59408E-04 3.44000E-05 0.00000E+00
 -1       109 4.28981E-04 1.89000E-05 0.00000E+00
 -1       110 4.95748E-04-1.59000E-07 0.00000E+00
 -1       111 5.57977E-04-2.18000E-05 0.00000E+00
 -1       112 6.14232E-04-4.50000E-05 0.00000E+00
 -1       113 6.63367E-04-6.89000E-05 0.00000E+00
 -1       114 7.04508E-04-9.23000E-05 0.00000E+00
 -1       115 7.37045E-04-1.14301E-04 0.00000E+00
 -1       116 7.60611E-04-1.33832E-04 0.00000E+00
 -1       117 7.75071E-04-1.49988E-04 0.00000E+00
 -1       118 7.80498E-04-1.61911E-04 0.00000E+00
 -1       119 7.77159E-04-1.68837E-04 0.00000E+00
 -1       120 7.65491E-04-1.70109E-04 0.00000E+00
 -1       121 7.46081E-04-1.65193E-04 0.00000E+00
 -1       122 7.19646E-04-1.53686E-04 0.00000E+00
 -1       123 6.87023E-04-1.35351E-04 0.00000E+00
 -1       124 6.49098E-04-1.10084E-04 0.00000E+00
 -1       125 6.06772E-04-7.79000E-05 0.00000E+00
 -1       126 5.60970E-04-3.89000E-05 0.00000E+00
 -1       127 5.12615E-04 6.64000E-06 0.00000E+00
 -1       128 4.62621E-04 5.84000E-05 0.00000E+00
 -1       129 4.11873E-04 1.15876E-04 0.00000E+00
 -1       130 3.61216E-04 1.78581E-04 0.00000E+00
 -1       131 3.11444E-04 2.45865E-04 0.00000E+00
 -1       132 2.63287E-04 3.17025E-04 0.00000E+00
 -1       133 2.17405E-04 3.91292E-04 0.00000E+00
 -1       134 1.74377E-04 4.67845E-04 0.00000E+00
 -1       135 1.34699E-04 5.45823E-04 0.00000E+00
 -1       136 9.88000E-05 6.24334E-04 0.00000E+00
 -1       137 6.69000E-05 7.02472E-04 0.00000E+00
 -1       138 3.93000E-05 7.79323E-04 0.00000E+00
 -1       139 1.62000E-05 8.53985E-04 0.00000E+00
 -1       140-2.60000E-06 9.25575E-04 0.00000E+00
 -1       141-1.70000E-05 9.93241E-04 0.00000E+00
 -1       142-2.72000E-05 1.05618E-03 0.00000E+00
 -1       143-3.34000E-05 1.11363E-03 0.00000E+00
 -1       144-3.60000E-05 1.16490E-03 0.00000E+00
 -1       145-3.53000E-05 1.20939E-03 0.00000E+00
 -1       146-3.17000E-05 1.24654E-03 0.00000E+00
 -1       147-2.59000E-05 1.27592E-03 0.00000E+00
 -1       148-1.83000E-05 1.29716E-03 0.00000E+00
 -1       149-9.43000E-06 1.31001E-03 0.00000E+00
 -1       150 1.19000E-08 1.31431E-03 0.00000E+00
 -1       151 9.46000E-06 1.31001E-03 0.00000E+00
 -1       152 1.83000E-05 1.29716E-03 0.00000E+00
 -1       153 2.59000E-05 1.27592E-03 0.00000E+00
 -1       154 3.18000E-05 1.24655E-03 0.00000E+00
 -1       155 3.53000E-05 1.20940E-03 0.00000E+00
 -1       156 3.60000E-05 1.16492E-03 0.00000E+00
 -1       157 3.34000E-05 1.11364E-03 0.00000E+00
 -1       158 2.72000E-05 1.05619E-03 0.00000E+00
 -1       159 1.70000E-05 9.93258E-04 0.00000E+00
 -1       160 2.63000E-06 9.25592E-04 0.00000E+00
 -1       161-1.61000E-05 8.54003E-04 0.00000E+00
 -1       162-3.93000E-05 7.79342E-04 0.00000E+00
 -1       163-6.69000E-05 7.02491E-04 0.00000E+00
 -1       164-9.87000E-05 6.24354E-04 0.00000E+00
 -1       165-1.34670E-04 5.45842E-04 0.00000E+00
 -1       166-1.74348E-04 4.67864E-04 0.00000E+00
 -1       167-2.17375E-04 3.91310E-04 0.00000E+00
 -1       168-2.63258E-04 3.17043E-04 0.00000E+00
 -1       169-3.11415E-04 2.45882E-04 0.00000E+00
 -1       170-3.61188E-04 1.78597E-04 0.00000E+00
 -1       171-4.11845E-04 1.15891E-04 0.00000E+00
 -1       172-4.62594E-04 5.84000E-05 0.00000E+00
 -1       173-5.12589E-04 6.65000E-06 0.00000E+00
 -1       174-5.60944E-04-3.89000E-05 0.00000E+00
 -1       175-6.06748E-04-7.79000E-05 0.00000E+00
 -1       176-6.49074E-04-1.10074E-04 0.00000E+00
 -1       177-6.87001E-04-1.35343E-04 0.00000E+00
 -1       178-7.19624E-04-1.53678E-04 0.00000E+00
 -1       179-7.46061E-04-1.65186E-04 0.00000E+00
 -1       180-7.65472E-04-1.70104E-04 0.00000E+00
 -1       181-7.77142E-04-1.68832E-04 0.00000E+00
 -1       182-7.80483E-04-1.61907E-04 0.00000E+00
 -1       183-7.75057E-04-1.49985E-04 0.00000E+00
 -1       184-7.60599E-04-1.33830E-04 0.00000E+00
 -1       185-7.37033E-04-1.14299E-04 0.00000E+00
 -1       186-7.04498E-04-9.23000E-05 0.00000E+00
 -1       187-6.63358E-04-6.89000E-05 0.00000E+00
 -1       188-6.14225E-04-4.50000E-05 0.00000E+00
 -1       189-5.57970E-04-2.18000E-05 0.00000E+00
 -1       190-4.95743E-04-1.59000E-07 0.00000E+00
 -1       191-4.28977E-04 1.89000E-05 0.00000E+00
 -1       192-3.59405E-04 3.44000E-05 0.00000E+00
 -1       193-2.89062E-04 4.56000E-05 0.00000E+00
 -1       194-2.20296E-04 5.19000E-05 0.00000E+00
 -1       195-1.55764E-04 5.26000E-05 0.00000E+00
 -1       196-9.84000E-05 4.77000E-05 0.00000E+00
 -1       197-5.16000E-05 3.69000E-05 0.00000E+00
 -1       198-1.90000E-05 2.05000E-05 0.00000E+00
 -1       199 0.00000E+00 0.00000E+00 0.00000E+00
 -1       200 0.00000E+00 0.00000E+00 0.00000E+00
 -1       201 0.00000E+00 0.00000E+00 0.00000E+00
 -1       202 0.00000E+00 0.00000E+00 0.00000E+00
 -1       203 9.76000E-06-1.75000E-05 0.00000E+00
 -1       204 3.96000E-05-3.19000E-05 0.00000E+00
 -1       205 8.21000E-05-4.50000E-05 0.00000E+00
 -1       206 1.34286E-04-5.76000E-05 0.00000E+00
 -1       207 1.93453E-04-7.01000E-05 0.00000E+00
 -1       208 2.57057E-04-8.27000E-05 0.00000E+00
 -1       209 3.22816E-04-9.57000E-05 0.00000E+00
 -1       210 3.88695E-04-1.08872E-04 0.00000E+00
 -1       211 4.52909E-04-1.21949E-04 0.00000E+00
 -1       212 5.13917E-04-1.34596E-04 0.00000E+00
 -1       213 5.70417E-04-1.46366E-04 0.00000E+00
 -1       214 6.21341E-04-1.56751E-04 0.00000E+00
 -1       215 6.65847E-04-1.65208E-04 0.00000E+00
 -1       216 7.03306E-04-1.71177E-04 0.00000E+00
 -1       217 7.33292E-04-1.74106E-04 0.00000E+00
 -1       218 7.55570E-04-1.73465E-04 0.00000E+00
 -1       219 7.70081E-04-1.68770E-04 0.00000E+00
 -1       220 7.76926E-04-1.59593E-04 0.00000E+00
 -1       221 7.76350E-04-1.45578E-04 0.00000E+00
 -1       222 7.68732E-04-1.26453E-04 0.00000E+00
 -1       223 7.54563E-04-1.02043E-04 0.00000E+00
 -1       224 7.34438E-04-7.23000E-05 0.00000E+00
 -1       225 7.09024E-04-3.71000E-05 0.00000E+00
 -1       226 6.79026E-04 3.34000E-06 0.00000E+00
 -1       227 6.45169E-04 4.89000E-05 0.00000E+00
 -1       228 6.08186E-04 9.94000E-05 0.00000E+00
 -1       229 5.68806E-04 1.54514E-04 0.00000E+00
 -1       230 5.27743E-04 2.13774E-04 0.00000E+00
 -1       231 4.85686E-04 2.76749E-04 0.00000E+00
 -1       232 4.43289E-04 3.42906E-04 0.00000E+00
 -1       233 4.01158E-04 4.11656E-04 0.00000E+00
 -1       234 3.59850E-04 4.82363E-04 0.00000E+00
 -1       235 3.19863E-04 5.54349E-04 0.00000E+00
 -1       236 2.81630E-04 6.26906E-04 0.00000E+00
 -1       237 2.45515E-04 6.99304E-04 0.00000E+00
 -1       238 2.11812E-04 7.70803E-04 0.00000E+00
 -1       239 1.80742E-04 8.40659E-04 0.00000E+00
 -1       240 1.52451E-04 9.08138E-04 0.00000E+00
 -1       241 1.27015E-04 9.72521E-04 0.00000E+00
 -1       242 1.04434E-04 1.03312E-03 0.00000E+00
 -1       243 8.46000E-05 1.08927E-03 0.00000E+00
 -1       244 6.75000E-05 1.14038E-03 0.00000E+00
 -1       245 5.29000E-05 1.18587E-03 0.00000E+00
 -1       246 4.04000E-05 1.22525E-03 0.00000E+00
 -1       247 2.99000E-05 1.25808E-03 0.00000E+00
 -1       248 2.10000E-05 1.28401E-03 0.00000E+00
 -1       249 1.33000E-05 1.30273E-03 0.00000E+00
 -1       250 6.45000E-06 1.31405E-03 0.00000E+00
 -1       251 1.41000E-08 1.31784E-03 0.00000E+00
 -1       252-6.42000E-06 1.31405E-03 0.00000E+00
 -1       253-1.33000E-05 1.30274E-03 0.00000E+00
 -1       254-2.10000E-05 1.28401E-03 0.00000E+00
 -1       255-2.99000E-05 1.25809E-03 0.00000E+00
 -1       256-4.04000E-05 1.22526E-03 0.00000E+00
 -1       257-5.28000E-05 1.18588E-03 0.00000E+00
 -1       258-6.75000E-05 1.14039E-03 0.00000E+00
 -1       259-8.46000E-05 1.08929E-03 0.00000E+00
 -1       260-1.04405E-04 1.03313E-03 0.00000E+00
 -1       261-1.26985E-04 9.72538E-04 0.00000E+00
 -1       262-1.52422E-04 9.08155E-04 0.00000E+00
 -1       263-1.80712E-04 8.40678E-04 0.00000E+00
 -1       264-2.11783E-04 7.70822E-04 0.00000E+00
 -1       265-2.45486E-04 6.99324E-04 0.00000E+00
 -1       266-2.81601E-04 6.26925E-04 0.00000E+00
 -1       267-3.19834E-04 5.54368E-04 0.00000E+00
 -1       268-3.59822E-04 4.82382E-04 0.00000E+00
 -1       269-4.01130E-04 4.11675E-04 0.00000E+00
 -1       270-4.43261E-04 3.42924E-04 0.00000E+00
 -1       271-4.85660E-04 2.76766E-04 0.00000E+00
 -1       272-5.27717E-04 2.13791E-04 0.00000E+00
 -1       273-5.68781E-04 1.54530E-04 0.00000E+00
 -1       274-6.08162E-04 9.95000E-05 0.00000E+00
 -1       275-6.45146E-04 4.90000E-05 0.00000E+00
 -1       276-6.79003E-04 3.36000E-06 0.00000E+00
 -1       277-7.09002E-04-3.71000E-05 0.00000E+00
 -1       278-7.34418E-04-7.23000E-05 0.00000E+00
 -1       279-7.54544E-04-1.02033E-04 0.00000E+00
 -1       280-7.68714E-04-1.26443E-04 0.00000E+00
 -1       281-7.76334E-04-1.45569E-04 0.00000E+00
 -1       282-7.76910E-04-1.59586E-04 0.00000E+00
 -1       283-7.70067E-04-1.68763E-04 0.00000E+00
 -1       284-7.55557E-04-1.73459E-04 0.00000E+00
 -1       285-7.33280E-04-1.74100E-04 0.00000E+00
 -1       286-7.03296E-04-1.71173E-04 0.00000E+00
 -1       287-6.65838E-04-1.65204E-04 0.00000E+00
 -1       288-6.21334E-04-1.56748E-04 0.00000E+00
 -1       289-5.70411E-04-1.46363E-04 0.00000E+00
 -1       290-5.13912E-04-1.34594E-04 0.00000E+00
 -1       291-4.52905E-04-1.21948E-04 0.00000E+00
 -1       292-3.88692E-04-1.08870E-04 0.00000E+00
 -1       293-3.22813E-04-9.57000E-05 0.00000E+00
 -1       294-2.57055E-04-8.27000E-05 0.00000E+00
 -1       295-1.93452E-04-7.01000E-05 0.00000E+00
 -1       296-1.34285E-04-5.76000E-05 0.00000E+00
 -1       297-8.21000E-05-4.50000E-05 0.00000E+00
 -1       298-3.96000E-05-3.19000E-05 0.00000E+00
 -1       299-9.76000E-06-1.75000E-05 0.00000E+00
 -1       300 9.76000E-06-1.75000E-05 0.00000E+00
 -1       301 3.96000E-05-3.19000E-05 0.00000E+00
 -1       302 8.21000E-05-4.50000E-05 0.00000E+00
 -1       303 1.34286E-04-5.76000E-05 0.00000E+00
 -1       304 1.93453E-04-7.01000E-05 0.00000E+00
 -1       305 2.57057E-04-8.27000E-05 0.00000E+00
 -1       306 3.22816E-04-9.57000E-05 0.00000E+00
 -1       307 3.88695E-04-1.08872E-04 0.00000E+00
 -1       308 4.52909E-04-1.21949E-04 0.00000E+00
 -1       309 5.13917E-04-1.34596E-04 0.00000E+00
 -1       310 5.70417E-04-1.46366E-04 0.00000E+00
 -1       311 6.21341E-04-1.56751E-04 0.00000E+00
 -1       312 6.65847E-04-1.65208E-04 0.00000E+00
 -1       313 7.03306E-04-1.71177E-04 0.00000E+00
 -1       314 7.33292E-04-1.74106E-04 0.00000E+00
 -1       315 7.55570E-04-1.73465E-04 0.00000E+00
 -1       316 7.70081E-04-1.68770E-04 0.00000E+00
 -1       317 7.76926E-04-1.59593E-04 0.00000E+00
 -1       318 7.76350E-04-1.45578E-04 0.00000E+00
 -1       319 7.68732E-04-1.26453E-04 0.00000E+00
 -1       320 7.54563E-04-1.02043E-04 0.00000E+00
 -1       321 7.34438E-04-7.23000E-05 0.00000E+00
 -1       322 7.09024E-04-3.71000E-05 0.00000E+00
 -1       323 6.79026E-04 3.34000E-06 0.00000E+00
 -1       324 6.45169E-04 4.89000E-05 0.00000E+00
 -1       325 6.08186E-04 9.94000E-05 0.00000E+00
 -1       326 5.68806E-04 1.54514E-04 0.00000E+00
 -1       327 5.27743E-04 2.13774E-04 0.00000E+00
 -1       328 4.85686E-04 2.76749E-04 0.00000E+00
 -1       329 4.43289E-04 3.42906E-04 0.00000E+00
 -1       330 4.01158E-04 4.11656E-04 0.00000E+00
 -1       331 3.59850E-04 4.82363E-04 0.00000E+00
 -1       332 3.19863E-04 5.54349E-04 0.00000E+00
 -1       333 2.81630E-04 6.26906E-04 0.00000E+00
 -1       334 2.45515E-04 6.99304E-04 0.00000E+00
 -1       335 2.11812E-04 7.70803E-04 0.00000E+00
 -1       336 1.80742E-04 8.40659E-04 0.00000E+00
 -1       337 1.52451E-04 9.08138E-04 0.00000E+00
 -1       338 1.27015E-04 9.72521E-04 0.00000E+00
 -1       339 1.04434E-04 1.03312E-03 0.00000E+00
 -1       340 8.46000E-05 1.08927E-03 0.00000E+00
 -1       341 6.75000E-05 1.14038E-03 0.00000E+00
 -1       342 5.29000E-05 1.18587E-03 0.00000E+00
 -1       343 4.04000E-05 1.22525E-03 0.00000E+00
 -1       344 2.99000E-05 1.25808E-03 0.00000E+00
 -1       345 2.10000E-05 1.28401E-03 0.00000E+00
 -1       346 1.33000E-05 1.30273E-03 0.00000E+00
 -1       347 6.45000E-06 1.31405E-03 0.00000E+00
 -1       348 1.41000E-08 1.31784E-03 0.00000E+00
 -1       349-6.42000E-06 1.31405E-03 0.00000E+00
 -1       350-1.33000E-05 1.30274E-03 0.00000E+00
 -1       351-2.10000E-05 1.28401E-03 0.00000E+00
 -1       352-2.99000E-05 1.25809E-03 0.00000E+00
 -1       353-4.04000E-05 1.22526E-03 0.00000E+00
 -1       354-5.28000E-05 1.18588E-03 0.00000E+00
 -1       355-6.75000E-05 1.14039E-03 0.00000E+00
 -1       356-8.46000E-05 1.08929E-03 0.00000E+00
 -1       357-1.04405E-04 1.03313E-03 0.00000E+00
 -1       358-1.26985E-04 9.72538E-04 0.00000E+00
 -1       359-1.52422E-04 9.08155E-04 0.00000E+00
 -1       360-1.80712E-04 8.40678E-04 0.00000E+00
 -1       361-2.11783E-04 7.70822E-04 0.00000E+00
 -1       362-2.45486E-04 6.99324E-04 0.00000E+00
 -1       363-2.81601E-04 6.26925E-04 0.00000E+00
 -1       364-3.19834E-04 5.54368E-04 0.00000E+00
 -1       365-3.59822E-04 4.82382E-04 0.00000E+00
 -1       366-4.01130E-04 4.11675E-04 0.00000E+00
 -1       367-4.43261E-04 3.42924E-04 0.00000E+00
 -1       368-4.85660E-04 2.76766E-04 0.00000E+00
 -1       369-5.27717E-04 2.13791E-04 0.00000E+00
 -1       370-5.68781E-04 1.54530E-04 0.00000E+00
 -1       371-6.08162E-04 9.95000E-05 0.00000E+00
 -1       372-6.45146E-04 4.90000E-05 0.00000E+00
 -1       373-6.79003E-04 3.36000E-06 0.00000E+00
 -1       374-7.09002E-04-3.71000E-05 0.00000E+00
 -1       375-7.34418E-04-7.23000E-05 0.00000E+00
 -1       376-7.54544E-04-1.02033E-04 0.00000E+00
 -1       377-7.68714E-04-1.26443E-04 0.00000E+00
 -1       378-7.76334E-04-1.45569E-04 0.00000E+00
 -1       379-7.76910E-04-1.59586E-04 0.00000E+00
 -1       380-7.70067E-04-1.68763E-04 0.00000E+00
 -1       381-7.55557E-04-1.73459E-04 0.00000E+00
 -1       382-7.33280E-04-1.74100E-04 0.00000E+00
 -1       383-7.03296E-04-1.71173E-04 0.00000E+00
 -1       384-6.65838E-04-1.65204E-04 0.00000E+00
 -1       385-6.21334E-04-1.56748E-04 0.00000E+00
 -1       386-5.70411E-04-1.46363E-04 0.00000E+00
 -1       387-5.13912E-04-1.34594E-04 0.00000E+00
 -1       388-4.52905E-04-1.21948E-04 0.00000E+00
 -1       389-3.88692E-04-1.08870E-04 0.00000E+00
 -1       390-3.22813E-04-9.57000E-05 0.00000E+00
 -1       391-2.57055E-04-8.27000E-05 0.00000E+00
 -1       392-1.93452E-04-7.01000E-05 0.00000E+00
 -1       393-1.34285E-04-5.76000E-05 0.00000E+00
 -1       394-8.21000E-05-4.50000E-05 0.00000E+00
 -1       395-3.96000E-05-3.19000E-05 0.00000E+00
 -1       396-9.76000E-06-1.75000E-05 0.00000E+00
 -3
    1PSTEP                         2          17           1          
  100CL  101 1.000000000         396                     0    1           1
 -4  STRESS      6    1
 -5  SXX         1    4    1    1
 -5  SYY         1    4    2    2
 -5  SZZ         1    4    3    3
 -5  SXY         1    4    1    2
 -5  SYZ         1    4    2    3
 -5  SZX         1    4    3    1
 -1         1 1.41439E+04 3.29910E+04 1.41162E+04 8.64091E+03 5.31743E-13 1.18988E-12
 -1         2 1.41439E+04 3.29910E+04 1.41162E+04 8.64091E+03 5.82440E-13 1.16919E-12
 -1         3 1.41439E+04 3.29910E+04 1.41162E+04-8.64091E+03-6.77939E-13-6.88684E-13
 -1         4 1.41439E+04 3.29910E+04 1.41162E+04-8.64091E+03-6.77873E-13-7.39245E-13
 -1         5 7.03468E+03 2.80650E+04 1.05180E+04 3.23043E+03 1.32639E-12 3.05537E-12
 -1         6 5.39062E+03 2.31503E+04 8.55217E+03 2.60491E+03 2.18585E-12-9.28778E-13
 -1         7 3.57186E+03 1.78907E+04 6.43187E+03 2.79168E+03 8.97061E-13 1.70536E-12
 -1         8 1.86594E+03 1.31833E+04 4.51017E+03 2.78634E+03 9.25338E-13 5.30472E-12
 -1         9 3.16298E+02 8.91356E+03 2.76596E+03 2.59416E+03 2.84199E-12-1.43871E-12
 -1        10-1.16737E+03 4.97130E+03 1.13936E+03 2.34843E+03 2.31551E-12 5.16910E-13
 -1        11-2.49978E+03 1.58158E+03-2.76552E+02 1.97663E+03 4.78417E-12-1.14181E-12
 -1        12-3.78879E+03-1.49985E+03-1.58729E+03 1.53449E+03-1.09707E-12-9.94057E-12
 -1        13-4.99643E+03-4.19286E+03-2.75736E+03 1.06945E+03-3.08439E-12 4.44997E-12
 -1        14-6.07674E+03-6.40819E+03-3.74611E+03 5.89095E+02 2.25400E-12 2.48063E-12
 -1        15-7.09253E+03-8.31950E+03-4.62443E+03 8.75726E+01 3.09794E-13 1.36870E-12
 -1        16-8.01756E+03-9.89446E+03-5.37472E+03-3.74760E+02 1.48440E-13-7.21179E-13
 -1        17-8.80936E+03-1.10734E+04-5.96622E+03-8.15196E+02 1.68215E-12-6.07482E-12
 -1        18-9.50329E+03-1.19742E+04-6.44495E+03-1.20150E+03-1.66721E-12 1.10080E-12
 -1        19-1.00480E+04-1.25190E+04-6.77203E+03-1.53084E+03 9.24615E-13 2.45807E-12
 -1        20-1.04652E+04-1.27971E+04-6.98076E+03-1.79625E+03-1.04993E-12 1.08409E-12
 -1        21-1.07376E+04-1.28101E+04-7.06645E+03-1.98936E+03 1.95412E-13-1.88970E-12
 -1        22-1.08601E+04-1.25829E+04-7.03501E+03-2.10553E+03-5.37620E-13 3.94307E-12
 -1        23-1.08300E+04-1.21420E+04-6.89359E+03-2.14340E+03 6.75512E-13-2.85160E-12
 -1        24-1.06418E+04-1.15134E+04-6.64836E+03-2.10400E+03-8.39131E-13-1.19639E-12
 -1        25-1.02909E+04-1.07338E+04-6.30896E+03-1.99240E+03-6.11187E-13-1.40086E-12
 -1        26-9.79120E+03-9.84035E+03-5.89071E+03-1.82116E+03-8.35923E-13-2.87022E-12
 -1        27-9.19716E+03-8.93196E+03-5.43971E+03-1.58164E+03-7.01924E-13 1.85499E-12
 -1        28-8.47835E+03-7.93864E+03-4.92581E+03-1.30496E+03-1.79459E-12 3.42202E-12
 -1        29-7.65182E+03-6.90314E+03-4.36694E+03-1.00142E+03 1.16888E-12 2.52657E-12
 -1        30-6.74758E+03-5.89606E+03-3.79333E+03-6.64011E+02-1.19264E-12 1.71715E-12
 -1        31-5.77108E+03-4.92467E+03-3.20882E+03-3.09734E+02 1.62187E-14 9.10486E-13
 -1        32-4.72280E+03-3.97895E+03-2.61055E+03 5.40393E+01 1.57079E-13 6.28166E-12
 -1        33-3.60063E+03-3.04309E+03-1.99311E+03 4.21454E+02-3.48255E-12 1.05659E-12
 -1        34-2.43335E+03-2.16770E+03-1.38034E+03 7.76825E+02 3.12262E-12 7.46633E-13
 -1        35-1.22884E+03-1.35047E+03-7.73909E+02 1.11553E+03 1.19400E-12 2.46992E-12
 -1        36-2.27113E-02-5.99356E+02-1.80075E+02 1.42986E+03 6.80396E-13-1.42087E-12
 -1        37 1.24260E+03 8.34383E+01 3.97361E+02 1.71272E+03 3.44527E-12 2.59310E-13
 -1        38 2.50420E+03 7.03557E+02 9.61643E+02 1.96051E+03-2.92979E-13 2.37100E-12
 -1        39 3.69828E+03 1.22883E+03 1.47720E+03 2.16344E+03-1.46438E-12-1.13459E-12
 -1        40 4.88675E+03 1.69217E+03 1.97248E+03 2.30479E+03 5.62720E-12 2.14891E-12
 -1        41 6.15211E+03 2.13599E+03 2.48491E+03 2.41386E+03-5.83539E-12-1.52866E-12
 -1        42 7.23466E+03 2.45875E+03 2.90623E+03 2.47819E+03 3.75795E-12 1.21074E-12
 -1        43 8.25145E+03 2.72038E+03 3.28950E+03 2.45642E+03-1.77948E-12-2.81497E-12
 -1        44 9.27887E+03 2.96285E+03 3.67020E+03 2.39893E+03-2.80324E-12 1.75521E-12
 -1        45 1.02146E+04 3.15335E+03 4.00779E+03 2.29614E+03 8.22905E-14-4.33680E-13
 -1        46 1.10360E+04 3.29182E+03 4.29552E+03 2.13059E+03 5.24081E-12 3.96651E-13
 -1        47 1.17763E+04 3.40158E+03 4.55037E+03 1.89947E+03-5.16086E-12 1.83637E-12
 -1        48 1.24922E+04 3.51617E+03 4.79930E+03 1.66677E+03 1.28056E-12-1.29793E-12
 -1        49 1.29810E+04 3.55808E+03 4.95839E+03 1.39281E+03 8.28969E-12 6.33431E-13
 -1        50 1.33240E+04 3.56613E+03 5.06364E+03 1.05845E+03 3.61424E-13-8.92765E-14
 -1        51 1.36936E+04 3.62226E+03 5.19122E+03 7.15953E+02-3.70658E-12 1.27906E-13
 -1        52 1.38973E+04 3.64741E+03 5.25981E+03 3.65784E+02 5.17204E-12 4.01270E-13
 -1        53 1.39341E+04 3.64178E+03 5.26918E+03-5.96333E-02-2.32433E-12 2.82246E-14
 -1        54 1.38785E+04 3.63928E+03 5.25176E+03-3.64468E+02 7.16102E-13-1.80369E-13
 -1        55 1.36698E+04 3.61191E+03 5.18102E+03-7.14391E+02-3.45688E-12-5.45202E-13
 -1        56 1.34032E+04 3.59982E+03 5.09746E+03-1.06007E+03 3.21715E-13-3.57349E-13
 -1        57 1.29911E+04 3.56137E+03 4.96240E+03-1.36897E+03 2.30344E-12-5.38155E-13
 -1        58 1.24129E+04 3.48245E+03 4.76541E+03-1.66209E+03-6.43194E-12 1.22615E-12
 -1        59 1.17603E+04 3.39437E+03 4.54341E+03-1.92147E+03-2.14606E-12-1.84423E-12
 -1        60 1.10369E+04 3.29244E+03 4.29599E+03-2.12992E+03-7.35397E-12 4.89402E-14
 -1        61 1.02144E+04 3.15341E+03 4.00775E+03-2.29541E+03-1.58365E-12 7.02801E-13
 -1        62 9.29482E+03 2.96994E+03 3.67710E+03-2.40682E+03-2.79194E-13-1.19795E-12
 -1        63 8.32677E+03 2.75241E+03 3.32167E+03-2.46356E+03 3.54234E-12 4.16445E-12
 -1        64 7.23261E+03 2.45801E+03 2.90540E+03-2.45991E+03-3.04726E-12-1.45455E-12
 -1        65 6.06910E+03 2.10022E+03 2.44931E+03-2.41133E+03 1.94200E-12-7.84464E-13
 -1        66 4.94951E+03 1.71880E+03 1.99928E+03-2.32009E+03 2.65144E-12-1.63721E-12
 -1        67 3.74433E+03 1.24853E+03 1.49692E+03-2.15165E+03 1.51144E-12 1.32490E-12
 -1        68 2.45445E+03 6.82551E+02 9.40430E+02-1.95311E+03 1.38737E-12-1.37582E-12
 -1        69 1.24347E+03 8.41339E+01 3.97830E+02-1.71303E+03 1.94893E-12 2.92244E-12
 -1        70 7.18565E-01-5.99257E+02-1.79823E+02-1.42978E+03 2.43904E-12-2.42970E-12
 -1        71-1.22916E+03-1.35080E+03-7.74104E+02-1.11553E+03 7.32055E-13-1.32957E-12
 -1        72-2.43341E+03-2.16751E+03-1.38030E+03-7.77009E+02 2.79082E-12-2.74781E-12
 -1        73-3.60014E+03-3.04262E+03-1.99282E+03-4.21452E+02-1.27079E-12 1.49941E-13
 -1        74-4.71950E+03-3.97203E+03-2.60748E+03-5.66530E+01-1.37781E-12-7.03325E-12
 -1        75-5.77408E+03-4.93140E+03-3.21176E+03 3.06934E+02-2.74265E-12-6.43979E-13
 -1        76-6.76979E+03-5.94878E+03-3.81584E+03 6.50282E+02 3.25692E-13-3.18087E-12
 -1        77-7.67382E+03-6.95550E+03-4.38926E+03 9.84636E+02 1.31450E-12 1.56771E-12
 -1        78-8.48640E+03-7.95643E+03-4.93355E+03 1.30388E+03-1.62760E-12-2.47140E-12
 -1        79-9.19678E+03-8.93137E+03-5.43941E+03 1.58525E+03 1.56269E-12 1.51155E-12
 -1        80-9.78863E+03-9.83480E+03-5.88828E+03 1.82290E+03-4.05418E-13-2.78328E-12
 -1        81-1.02901E+04-1.07337E+04-6.30870E+03 1.99266E+03-3.80015E-13-1.66432E-12
 -1        82-1.06417E+04-1.15130E+04-6.64821E+03 2.10385E+03-1.55032E-13 5.36223E-12
 -1        83-1.08296E+04-1.21423E+04-6.89356E+03 2.14334E+03 2.28998E-13-2.81284E-12
 -1        84-1.08612E+04-1.25836E+04-7.03556E+03 2.10590E+03 6.27181E-13 3.25075E-12
 -1        85-1.07381E+04-1.28103E+04-7.06664E+03 1.98923E+03-6.53425E-13 2.97372E-13
 -1        86-1.04656E+04-1.27971E+04-6.98088E+03 1.79613E+03-4.25994E-13-7.25308E-13
 -1        87-1.00491E+04-1.25201E+04-6.77269E+03 1.53032E+03 1.76488E-12 4.32393E-12
 -1        88-9.50222E+03-1.19732E+04-6.44432E+03 1.20149E+03-4.79775E-13 1.42630E-12
 -1        89-8.80954E+03-1.10733E+04-5.96626E+03 8.14880E+02-7.26382E-13-2.96934E-13
 -1        90-8.01736E+03-9.89513E+03-5.37486E+03 3.74919E+02-6.35018E-13 1.13309E-13
 -1        91-7.09269E+03-8.32026E+03-4.62471E+03-8.77178E+01-1.89007E-13-1.52461E-12
 -1        92-6.07595E+03-6.40829E+03-3.74590E+03-5.88957E+02 5.23940E-12-5.77488E-12
 -1        93-4.99645E+03-4.19306E+03-2.75742E+03-1.06896E+03-9.50315E-13-1.33043E-12
 -1        94-3.78861E+03-1.50012E+03-1.58731E+03-1.53444E+03-2.47162E-12-3.04217E-12
 -1        95-2.49997E+03 1.58149E+03-2.76637E+02-1.97641E+03 6.15398E-12 1.72567E-12
 -1        96-1.16689E+03 4.97150E+03 1.13956E+03-2.34794E+03-1.77500E-14 4.40567E-12
 -1        97 3.16034E+02 8.91344E+03 2.76585E+03-2.59371E+03 2.29865E-12-3.84967E-13
 -1        98 1.86583E+03 1.31833E+04 4.51012E+03-2.78611E+03 4.55565E-13-6.64715E-12
 -1        99 3.57178E+03 1.78907E+04 6.43183E+03-2.79145E+03 1.92659E-12-3.17321E-12
 -1       100 5.39062E+03 2.31503E+04 8.55217E+03-2.60491E+03 4.34239E-13 6.75560E-12
 -1       101 7.03468E+03 2.80650E+04 1.05180E+04-3.23043E+03 1.10916E-12-2.83444E-12
 -1       102 7.03468E+03 2.80650E+04 1.05180E+04 3.23043E+03 1.24427E-12 3.00090E-12
 -1       103 5.39062E+03 2.31503E+04 8.55217E+03 2.60491E+03 1.98803E-12-9.11148E-13
 -1       104 3.57186E+03 1.78907E+04 6.43187E+03 2.79168E+03 8.03197E-13 1.33063E-12
 -1       105 1.86594E+03 1.31833E+04 4.51017E+03 2.78634E+03 1.14639E-12 6.32243E-12
 -1       106 3.16298E+02 8.91356E+03 2.76596E+03 2.59416E+03 2.84558E-12 9.33285E-14
 -1       107-1.16737E+03 4.97130E+03 1.13936E+03 2.34843E+03 2.05548E-12 8.00513E-13
 -1       108-2.49978E+03 1.58158E+03-2.76552E+02 1.97663E+03 4.78642E-12-5.03843E-12
 -1       109-3.78879E+03-1.49985E+03-1.58729E+03 1.53449E+03-1.53617E-12-7.83357E-12
 -1       110-4.99643E+03-4.19286E+03-2.75736E+03 1.06945E+03-3.06643E-12 6.11672E-12
 -1       111-6.07674E+03-6.40819E+03-3.74611E+03 5.89095E+02 2.04874E-12 3.18161E-12
 -1       112-7.09253E+03-8.31950E+03-4.62443E+03 8.75726E+01 6.65847E-13 2.67453E-12
 -1       113-8.01756E+03-9.89446E+03-5.37472E+03-3.74760E+02 5.29096E-13 4.07422E-12
 -1       114-8.80936E+03-1.10734E+04-5.96622E+03-8.15196E+02 1.15157E-12-7.84874E-13
 -1       115-9.50329E+03-1.19742E+04-6.44495E+03-1.20150E+03-1.01794E-12 5.70665E-13
 -1       116-1.00480E+04-1.25190E+04-6.77203E+03-1.53084E+03-1.75792E-13-3.03973E-13
 -1       117-1.04652E+04-1.27971E+04-6.98076E+03-1.79625E+03 3.42442E-13-1.11406E-13
 -1       118-1.07376E+04-1.28101E+04-7.06645E+03-1.98936E+03 1.58487E-13-1.35828E-12
 -1       119-1.08601E+04-1.25829E+04-7.03501E+03-2.10553E+03-7.75795E-13 2.70816E-12
 -1       120-1.08300E+04-1.21420E+04-6.89359E+03-2.14340E+03 6.67691E-13-8.95573E-13
 -1       121-1.06418E+04-1.15134E+04-6.64836E+03-2.10400E+03-9.59798E-13 1.79323E-13
 -1       122-1.02909E+04-1.07338E+04-6.30896E+03-1.99240E+03 7.19300E-13-1.58300E-14
 -1       123-9.79120E+03-9.84035E+03-5.89071E+03-1.82116E+03-1.76205E-12 4.40021E-12
 -1       124-9.19716E+03-8.93196E+03-5.43971E+03-1.58164E+03-2.69606E-13-2.94645E-12
 -1       125-8.47835E+03-7.93864E+03-4.92581E+03-1.30496E+03-9.30826E-13-6.12715E-13
 -1       126-7.65182E+03-6.90314E+03-4.36694E+03-1.00142E+03 9.80648E-13 2.48826E-13
 -1       127-6.74758E+03-5.89606E+03-3.79333E+03-6.64011E+02-1.41426E-12 2.98426E-13
 -1       128-5.77108E+03-4.92467E+03-3.20882E+03-3.09734E+02-2.09343E-13 2.51146E-13
 -1       129-4.72280E+03-3.97895E+03-2.61055E+03 5.40393E+01 1.97284E-13 6.14380E-12
 -1       130-3.60063E+03-3.04309E+03-1.99311E+03 4.21454E+02-2.90315E-12 1.30034E-12
 -1       131-2.43335E+03-2.16770E+03-1.38034E+03 7.76825E+02 2.25612E-12 2.52818E-12
 -1       132-1.22884E+03-1.35047E+03-7.73909E+02 1.11553E+03 6.54464E-12-9.08597E-15
 -1       133-2.27113E-02-5.99356E+02-1.80075E+02 1.42986E+03-1.23997E-12-1.31793E-12
 -1       134 1.24260E+03 8.34383E+01 3.97361E+02 1.71272E+03 3.31782E-12 1.20201E-12
 -1       135 2.50420E+03 7.03557E+02 9.61643E+02 1.96051E+03 2.24983E-12 1.99456E-12
 -1       136 3.69828E+03 1.22883E+03 1.47720E+03 2.16344E+03-1.66000E-12-1.86262E-12
 -1       137 4.88675E+03 1.69217E+03 1.97248E+03 2.30479E+03 1.07099E-12 1.77647E-12
 -1       138 6.15211E+03 2.13599E+03 2.48491E+03 2.41386E+03-9.48976E-14-1.16815E-12
 -1       139 7.23466E+03 2.45875E+03 2.90623E+03 2.47819E+03 1.47270E-12 1.45201E-12
 -1       140 8.25145E+03 2.72038E+03 3.28950E+03 2.45642E+03-1.76897E-12-2.79251E-12
 -1       141 9.27887E+03 2.96285E+03 3.67020E+03 2.39893E+03-4.63031E-12 1.54698E-12
 -1       142 1.02146E+04 3.15335E+03 4.00779E+03 2.29614E+03-5.92231E-13-2.16954E-13
 -1       143 1.10360E+04 3.29182E+03 4.29552E+03 2.13059E+03-2.63500E-12 7.50822E-14
 -1       144 1.17763E+04 3.40158E+03 4.55037E+03 1.89947E+03 4.21149E-12 1.93221E-12
 -1       145 1.24922E+04 3.51617E+03 4.79930E+03 1.66677E+03-1.25336E-12-8.44806E-13
 -1       146 1.29810E+04 3.55808E+03 4.95839E+03 1.39281E+03 5.69165E-12 5.27992E-13
 -1       147 1.33240E+04 3.56613E+03 5.06364E+03 1.05845E+03-3.90166E-12 1.37692E-14
 -1       148 1.36936E+04 3.62226E+03 5.19122E+03 7.15953E+02 7.63175E-12 2.51139E-14
 -1       149 1.38973E+04 3.64741E+03 5.25981E+03 3.65784E+02 3.42205E-13 4.09785E-13
 -1       150 1.39341E+04 3.64178E+03 5.26918E+03-5.96333E-02 3.26925E-13 3.52911E-14
 -1       151 1.38785E+04 3.63928E+03 5.25176E+03-3.64468E+02 5.67424E-14-2.38258E-13
 -1       152 1.36698E+04 3.61191E+03 5.18102E+03-7.14391E+02-4.75587E-12-5.10087E-13
 -1       153 1.34032E+04 3.59982E+03 5.09746E+03-1.06007E+03 1.34133E-11-3.76679E-13
 -1       154 1.29911E+04 3.56137E+03 4.96240E+03-1.36897E+03-3.03184E-12-5.82530E-13
 -1       155 1.24129E+04 3.48245E+03 4.76541E+03-1.66209E+03 6.72328E-12 1.30883E-12
 -1       156 1.17603E+04 3.39437E+03 4.54341E+03-1.92147E+03 4.56654E-12-1.88271E-12
 -1       157 1.10369E+04 3.29244E+03 4.29599E+03-2.12992E+03-3.67398E-12 2.83590E-14
 -1       158 1.02144E+04 3.15341E+03 4.00775E+03-2.29541E+03 8.99652E-13 4.96112E-13
 -1       159 9.29482E+03 2.96994E+03 3.67710E+03-2.40682E+03 2.40224E-12-1.08101E-12
 -1       160 8.32677E+03 2.75241E+03 3.32167E+03-2.46356E+03-2.95532E-12 4.23629E-12
 -1       161 7.23261E+03 2.45801E+03 2.90540E+03-2.45991E+03-9.57718E-13-1.55610E-12
 -1       162 6.06910E+03 2.10022E+03 2.44931E+03-2.41133E+03 2.70319E-12-1.19474E-12
 -1       163 4.94951E+03 1.71880E+03 1.99928E+03-2.32009E+03-1.33824E-12-1.60338E-12
 -1       164 3.74433E+03 1.24853E+03 1.49692E+03-2.15165E+03 4.11501E-13 1.59833E-12
 -1       165 2.45445E+03 6.82551E+02 9.40430E+02-1.95311E+03-2.22927E-13-1.98050E-12
 -1       166 1.24347E+03 8.41339E+01 3.97830E+02-1.71303E+03 3.78937E-12 6.50720E-13
 -1       167 7.18565E-01-5.99257E+02-1.79823E+02-1.42978E+03 3.41559E-12-1.15608E-12
 -1       168-1.22916E+03-1.35080E+03-7.74104E+02-1.11553E+03 1.61639E-12-8.35482E-13
 -1       169-2.43341E+03-2.16751E+03-1.38030E+03-7.77009E+02 4.73919E-12-1.97348E-12
 -1       170-3.60014E+03-3.04262E+03-1.99282E+03-4.21452E+02-5.39203E-13-1.58280E-12
 -1       171-4.71950E+03-3.97203E+03-2.60748E+03-5.66530E+01-1.37194E-12-6.22109E-12
 -1       172-5.77408E+03-4.93140E+03-3.21176E+03 3.06934E+02-3.18781E-12 9.73138E-13
 -1       173-6.76979E+03-5.94878E+03-3.81584E+03 6.50282E+02 8.36324E-13-4.26448E-12
 -1       174-7.67382E+03-6.95550E+03-4.38926E+03 9.84636E+02 9.37506E-13-2.90043E-12
 -1       175-8.48640E+03-7.95643E+03-4.93355E+03 1.30388E+03-1.57192E-12 8.50471E-13
 -1       176-9.19678E+03-8.93137E+03-5.43941E+03 1.58525E+03 1.84088E-12 1.07819E-12
 -1       177-9.78863E+03-9.83480E+03-5.88828E+03 1.82290E+03-5.00301E-13-2.57032E-12
 -1       178-1.02901E+04-1.07337E+04-6.30870E+03 1.99266E+03 3.03462E-13-1.31698E-12
 -1       179-1.06417E+04-1.15130E+04-6.64821E+03 2.10385E+03-8.16097E-13-3.37207E-12
 -1       180-1.08296E+04-1.21423E+04-6.89356E+03 2.14334E+03-3.16532E-14 1.33854E-12
 -1       181-1.08612E+04-1.25836E+04-7.03556E+03 2.10590E+03-1.50590E-13-3.44234E-12
 -1       182-1.07381E+04-1.28103E+04-7.06664E+03 1.98923E+03 2.06040E-13-1.06160E-12
 -1       183-1.04656E+04-1.27971E+04-6.98088E+03 1.79613E+03 2.01634E-13-1.56632E-12
 -1       184-1.00491E+04-1.25201E+04-6.77269E+03 1.53032E+03 6.41990E-13 4.74282E-12
 -1       185-9.50222E+03-1.19732E+04-6.44432E+03 1.20149E+03-3.29792E-13-6.14878E-12
 -1       186-8.80954E+03-1.10733E+04-5.96626E+03 8.14880E+02-2.16185E-13 1.85686E-12
 -1       187-8.01736E+03-9.89513E+03-5.37486E+03 3.74919E+02-2.12357E-13 1.29785E-12
 -1       188-7.09269E+03-8.32026E+03-4.62471E+03-8.77178E+01 2.60556E-13 2.96560E-13
 -1       189-6.07595E+03-6.40829E+03-3.74590E+03-5.88957E+02 5.03670E-12-6.53939E-12
 -1       190-4.99645E+03-4.19306E+03-2.75742E+03-1.06896E+03-8.61015E-13-3.49001E-12
 -1       191-3.78861E+03-1.50012E+03-1.58731E+03-1.53444E+03-2.32516E-12-1.85343E-12
 -1       192-2.49997E+03 1.58149E+03-2.76637E+02-1.97641E+03 6.24859E-12-3.99876E-13
 -1       193-1.16689E+03 4.97150E+03 1.13956E+03-2.34794E+03-4.51713E-13 7.11399E-12
 -1       194 3.16034E+02 8.91344E+03 2.76585E+03-2.59371E+03 2.39350E-12-1.37652E-12
 -1       195 1.86583E+03 1.31833E+04 4.51012E+03-2.78611E+03 5.17873E-13-6.74125E-12
 -1       196 3.57178E+03 1.78907E+04 6.43183E+03-2.79145E+03 1.97909E-12-3.35553E-12
 -1       197 5.39062E+03 2.31503E+04 8.55217E+03-2.60491E+03 5.36993E-13 6.58742E-12
 -1       198 7.03468E+03 2.80650E+04 1.05180E+04-3.23043E+03 1.13627E-12-2.85384E-12
 -1       199-1.23028E+04-2.86974E+04-1.23077E+04-4.68743E+03 1.26130E-12 1.52342E-12
 -1       200-1.23028E+04-2.86974E+04-1.23077E+04-4.68743E+03 1.26128E-12 1.53697E-12
 -1       201-1.23028E+04-2.86974E+04-1.23077E+04 4.68743E+03-3.88670E-13-1.59290E-13
 -1       202-1.23028E+04-2.86974E+04-1.23077E+04 4.68743E+03-4.02254E-13-1.53745E-13
 -1       203-1.71278E+04-2.78648E+04-1.35100E+04 5.69209E+02 1.98788E-13-1.59958E-12
 -1       204-1.37586E+04-2.13268E+04-1.05318E+04 1.23100E+03-1.23123E-12 2.73946E-12
 -1       205-1.11513E+04-1.60012E+04-8.14928E+03 1.09676E+03 7.47780E-13-1.46862E-12
 -1       206-8.81843E+03-1.11340E+04-5.98768E+03 1.15406E+03-5.35333E-13-5.15068E-12
 -1       207-6.56848E+03-6.57597E+03-3.94437E+03 1.33257E+03-7.85572E-13-1.29020E-12
 -1       208-4.58549E+03-2.67500E+03-2.17897E+03 1.66242E+03-7.77373E-13-1.98185E-12
 -1       209-2.80944E+03 6.87364E+02-6.37628E+02 2.02263E+03 1.52109E-13-1.14725E-12
 -1       210-1.15473E+03 3.70200E+03 7.62722E+02 2.44660E+03-5.04898E-13 1.79307E-11
 -1       211 3.31559E+02 6.24901E+03 1.97209E+03 2.92390E+03-5.90482E-13-7.27034E-12
 -1       212 1.66213E+03 8.35505E+03 3.00238E+03 3.41066E+03 6.50251E-14-1.50726E-12
 -1       213 2.86090E+03 1.00779E+04 3.87820E+03 3.88004E+03-1.06637E-12 3.82956E-13
 -1       214 3.91594E+03 1.13989E+04 4.59041E+03 4.35085E+03-3.02785E-13-3.84942E-12
 -1       215 4.85648E+03 1.23962E+04 5.17122E+03 4.77223E+03 3.17596E-13 4.45966E-12
 -1       216 5.66843E+03 1.30581E+04 5.61298E+03 5.15803E+03-3.90184E-13-5.32602E-12
 -1       217 6.36815E+03 1.34432E+04 5.93813E+03 5.48061E+03-1.67875E-14 1.07551E-12
 -1       218 6.95167E+03 1.35688E+04 6.15068E+03 5.73804E+03-2.62957E-13-2.80656E-12
 -1       219 7.41927E+03 1.34626E+04 6.25903E+03 5.92292E+03 2.44741E-13 1.63614E-12
 -1       220 7.76734E+03 1.31508E+04 6.26995E+03 6.03092E+03-3.70078E-13 9.63908E-14
 -1       221 7.99384E+03 1.26585E+04 6.19035E+03 6.06023E+03-8.66921E-13-2.35649E-12
 -1       222 8.09996E+03 1.20086E+04 6.02745E+03 6.00998E+03 1.18713E-12 3.64318E-12
 -1       223 8.08285E+03 1.12095E+04 5.78290E+03 5.87688E+03-2.32465E-13 6.07368E-13
 -1       224 7.98753E+03 1.03875E+04 5.50804E+03 5.68633E+03 7.75815E-13 3.35917E-13
 -1       225 7.76379E+03 9.44036E+03 5.15717E+03 5.45476E+03 7.05452E-13 4.44416E-13
 -1       226 7.42962E+03 8.41850E+03 4.75080E+03 5.14889E+03 1.57949E-12-1.46588E-12
 -1       227 7.03579E+03 7.45772E+03 4.34483E+03 4.81030E+03-1.11274E-12-3.75566E-12
 -1       228 6.54821E+03 6.48673E+03 3.90766E+03 4.45520E+03-2.70292E-13 1.34736E-12
 -1       229 5.94331E+03 5.45852E+03 3.41817E+03 4.06269E+03-1.31169E-12 1.10383E-12
 -1       230 5.24086E+03 4.41893E+03 2.89599E+03 3.64473E+03-1.78646E-12 3.47515E-12
 -1       231 4.46895E+03 3.42687E+03 2.36718E+03 3.21947E+03 3.25360E-12-2.35274E-12
 -1       232 3.61846E+03 2.45586E+03 1.82110E+03 2.79061E+03-2.51614E-12 3.30984E-12
 -1       233 2.69732E+03 1.51355E+03 1.26240E+03 2.36650E+03-3.57131E-12-2.79349E-12
 -1       234 1.71629E+03 6.04283E+02 6.95587E+02 1.95508E+03 8.84617E-13 1.66601E-12
 -1       235 6.85961E+02-2.67673E+02 1.25134E+02 1.56233E+03-2.92594E-12 2.87872E-12
 -1       236-3.83112E+02-1.09848E+03-4.44651E+02 1.19443E+03 2.29793E-12-3.26688E-12
 -1       237-1.48744E+03-1.88892E+03-1.01297E+03 8.62226E+02-4.43166E-13 1.69235E-13
 -1       238-2.57968E+03-2.62185E+03-1.56045E+03 5.51300E+02-2.40554E-12-8.64214E-13
 -1       239-3.67653E+03-3.30913E+03-2.09567E+03 2.82773E+02 2.18646E-12 1.19542E-13
 -1       240-4.78606E+03-3.95868E+03-2.62345E+03 7.64900E+01-2.14758E-12 1.12807E-12
 -1       241-5.82710E+03-4.53973E+03-3.11017E+03-1.15283E+02 1.76450E-12-3.18238E-13
 -1       242-6.86811E+03-5.08758E+03-3.58697E+03-2.58237E+02-4.63428E-13-7.72637E-13
 -1       243-7.79613E+03-5.55849E+03-4.00679E+03-3.45790E+02-1.87018E-12 1.27958E-12
 -1       244-8.57950E+03-5.94397E+03-4.35759E+03-3.98856E+02-1.72111E-12-9.67068E-13
 -1       245-9.42249E+03-6.33726E+03-4.72869E+03-4.44090E+02 1.19302E-12-7.28504E-13
 -1       246-1.01596E+04-6.67192E+03-5.05040E+03-4.17828E+02 1.21926E-12 3.25395E-12
 -1       247-1.06800E+04-6.90272E+03-5.27591E+03-3.55056E+02-4.64977E-12 2.38547E-13
 -1       248-1.11488E+04-7.10700E+03-5.47800E+03-3.00267E+02 1.34111E-12-6.31610E-13
 -1       249-1.14853E+04-7.25045E+03-5.62207E+03-2.15914E+02-7.58383E-12-6.29224E-13
 -1       250-1.16770E+04-7.33028E+03-5.70358E+03-1.07692E+02-1.14858E-11 9.01850E-15
 -1       251-1.17482E+04-7.36038E+03-5.73401E+03-2.87563E-02 5.75767E-12-7.72473E-14
 -1       252-1.17006E+04-7.34055E+03-5.71377E+03 1.09119E+02-6.34006E-12 1.94265E-13
 -1       253-1.15105E+04-7.26150E+03-5.63297E+03 2.17568E+02 7.94065E-12 5.42381E-13
 -1       254-1.11482E+04-7.10696E+03-5.47777E+03 3.01197E+02-1.01463E-12 1.00977E-13
 -1       255-1.06700E+04-6.89930E+03-5.27186E+03 3.78570E+02-4.48374E-12 7.37755E-13
 -1       256-1.00784E+04-6.63676E+03-5.01547E+03 4.14709E+02 5.21074E-12-1.17673E-12
 -1       257-9.43846E+03-6.34454E+03-4.73567E+03 4.22259E+02-2.90842E-13-4.44146E-13
 -1       258-8.66018E+03-5.97825E+03-4.39211E+03 4.04748E+02 5.54001E-12-8.69240E-13
 -1       259-7.77283E+03-5.54839E+03-3.99676E+03 3.44754E+02 1.25954E-12-5.06236E-13
 -1       260-6.85082E+03-5.08013E+03-3.57953E+03 2.50513E+02-1.62618E-12 1.65394E-12
 -1       261-5.82642E+03-4.53964E+03-3.10993E+03 1.15438E+02 1.90495E-12-2.23509E-12
 -1       262-4.76605E+03-3.94996E+03-2.61483E+03-6.06186E+01 7.93841E-13 2.10584E-13
 -1       263-3.68684E+03-3.31409E+03-2.10027E+03-2.88635E+02-3.95500E-12 2.34220E-12
 -1       264-2.58945E+03-2.62632E+03-1.56472E+03-5.57174E+02-2.21113E-12-5.25294E-13
 -1       265-1.46193E+03-1.87798E+03-1.00202E+03-8.47563E+02 2.40679E-12 2.25563E-14
 -1       266-3.83483E+02-1.09832E+03-4.44717E+02-1.19456E+03-6.46532E-13 6.72518E-13
 -1       267 6.85250E+02-2.67974E+02 1.24831E+02-1.56222E+03-8.87298E-13-1.88410E-12
 -1       268 1.71614E+03 6.03661E+02 6.95356E+02-1.95469E+03 9.73918E-13 3.42942E-12
 -1       269 2.69767E+03 1.51353E+03 1.26249E+03-2.36663E+03 1.99245E-12-6.39115E-13
 -1       270 3.61770E+03 2.45579E+03 1.82085E+03-2.79067E+03-4.51444E-12-3.95108E-12
 -1       271 4.46854E+03 3.42658E+03 2.36698E+03-3.21915E+03 1.60753E-12-6.34151E-14
 -1       272 5.24095E+03 4.41845E+03 2.89587E+03-3.64472E+03-1.49948E-12 7.22726E-13
 -1       273 5.91959E+03 5.40358E+03 3.39459E+03-4.04949E+03 8.36292E-13-1.61411E-12
 -1       274 6.50493E+03 6.38586E+03 3.86446E+03-4.45388E+03 7.17552E-13 2.69551E-13
 -1       275 7.03221E+03 7.44714E+03 4.34056E+03-4.83940E+03-1.20212E-12-7.05599E-13
 -1       276 7.45054E+03 8.46736E+03 4.77170E+03-5.16835E+03 5.93417E-13 3.58027E-12
 -1       277 7.77089E+03 9.45788E+03 5.16454E+03-5.45537E+03-1.40645E-12-1.02744E-12
 -1       278 7.98621E+03 1.03852E+04 5.50694E+03-5.68254E+03 6.17998E-13 1.53864E-12
 -1       279 8.08049E+03 1.12023E+04 5.78005E+03-5.87496E+03 1.81873E-13 2.19104E-12
 -1       280 8.09943E+03 1.20078E+04 6.02703E+03-6.00983E+03 2.09510E-12-1.04775E-12
 -1       281 7.99496E+03 1.26592E+04 6.19088E+03-6.06061E+03-3.85331E-13 1.64352E-12
 -1       282 7.76731E+03 1.31513E+04 6.27007E+03-6.03103E+03-1.45435E-12-3.03765E-12
 -1       283 7.41843E+03 1.34618E+04 6.25853E+03-5.92290E+03-2.13022E-14-2.77622E-12
 -1       284 6.95135E+03 1.35683E+04 6.15043E+03-5.73823E+03-3.84157E-13-1.08284E-12
 -1       285 6.36698E+03 1.34427E+04 5.93762E+03-5.48102E+03-1.53027E-12-5.03668E-12
 -1       286 5.66913E+03 1.30591E+04 5.61348E+03-5.15781E+03 1.64207E-13 1.81597E-12
 -1       287 4.85595E+03 1.23955E+04 5.17086E+03-4.77242E+03 1.46292E-12 1.07381E-12
 -1       288 3.91641E+03 1.13990E+04 4.59058E+03-4.35074E+03-3.51794E-13 2.20115E-12
 -1       289 2.86104E+03 1.00779E+04 3.87825E+03-3.88024E+03 8.61760E-13 3.00138E-13
 -1       290 1.66357E+03 8.35653E+03 3.00326E+03-3.41065E+03-8.67762E-13-1.05631E-12
 -1       291 3.31739E+02 6.24889E+03 1.97211E+03-2.92359E+03-1.25973E-12 4.56603E-12
 -1       292-1.15400E+03 3.70262E+03 7.63126E+02-2.44681E+03 1.91754E-12-3.84015E-12
 -1       293-2.80894E+03 6.88900E+02-6.37017E+02-2.02251E+03-3.38409E-12 1.59635E-12
 -1       294-4.58503E+03-2.67480E+03-2.17878E+03-1.66191E+03 2.32432E-12-7.46677E-12
 -1       295-6.56862E+03-6.57603E+03-3.94443E+03-1.33233E+03 4.65423E-13-7.63782E-14
 -1       296-8.81854E+03-1.11340E+04-5.98773E+03-1.15382E+03-6.07255E-14 3.12303E-12
 -1       297-1.11514E+04-1.60012E+04-8.14932E+03-1.09652E+03-7.06617E-13 2.23984E-12
 -1       298-1.37586E+04-2.13268E+04-1.05318E+04-1.23100E+03 9.72747E-14-7.09449E-12
 -1       299-1.71278E+04-2.78648E+04-1.35100E+04-5.69209E+02 5.46086E-13 3.23046E-12
 -1       300-1.71278E+04-2.78648E+04-1.35100E+04 5.69209E+02 1.83381E-13-1.56620E-12
 -1       301-1.37586E+04-2.13268E+04-1.05318E+04 1.23100E+03-9.94728E-13 2.51483E-12
 -1       302-1.11513E+04-1.60012E+04-8.14928E+03 1.09676E+03 6.77608E-13-1.38325E-12
 -1       303-8.81843E+03-1.11340E+04-5.98768E+03 1.15406E+03-6.88339E-13-5.70458E-12
 -1       304-6.56848E+03-6.57597E+03-3.94437E+03 1.33257E+03-7.86568E-13-1.80119E-12
 -1       305-4.58549E+03-2.67500E+03-2.17897E+03 1.66242E+03-6.82658E-13-2.08121E-12
 -1       306-2.80944E+03 6.87364E+02-6.37628E+02 2.02263E+03 3.24302E-14-5.11405E-13
 -1       307-1.15473E+03 3.70200E+03 7.62722E+02 2.44660E+03 4.06877E-13 1.64422E-11
 -1       308 3.31559E+02 6.24901E+03 1.97209E+03 2.92390E+03-3.35021E-13-9.67360E-12
 -1       309 1.66213E+03 8.35505E+03 3.00238E+03 3.41066E+03 4.47225E-13 1.10594E-12
 -1       310 2.86090E+03 1.00779E+04 3.87820E+03 3.88004E+03-1.34985E-12-7.17394E-13
 -1       311 3.91594E+03 1.13989E+04 4.59041E+03 4.35085E+03-4.54521E-13-3.83473E-12
 -1       312 4.85648E+03 1.23962E+04 5.17122E+03 4.77223E+03 5.96554E-13 1.28683E-12
 -1       313 5.66843E+03 1.30581E+04 5.61298E+03 5.15803E+03-4.22498E-13 2.71495E-13
 -1       314 6.36815E+03 1.34432E+04 5.93813E+03 5.48061E+03 1.21908E-12 3.06328E-12
 -1       315 6.95167E+03 1.35688E+04 6.15068E+03 5.73804E+03-8.37307E-13-2.33912E-12
 -1       316 7.41927E+03 1.34626E+04 6.25903E+03 5.92292E+03 1.56519E-13 3.94780E-12
 -1       317 7.76734E+03 1.31508E+04 6.26995E+03 6.03092E+03-1.35345E-13-3.52745E-12
 -1       318 7.99384E+03 1.26585E+04 6.19035E+03 6.06023E+03 1.16891E-12 1.88088E-12
 -1       319 8.09996E+03 1.20086E+04 6.02745E+03 6.00998E+03 2.77267E-13 1.91927E-12
 -1       320 8.08285E+03 1.12095E+04 5.78290E+03 5.87688E+03-3.07820E-13-3.13314E-13
 -1       321 7.98753E+03 1.03875E+04 5.50804E+03 5.68633E+03 1.07376E-12-2.16197E-12
 -1       322 7.76379E+03 9.44036E+03 5.15717E+03 5.45476E+03 4.38911E-13 9.79690E-13
 -1       323 7.42962E+03 8.41850E+03 4.75080E+03 5.14889E+03 1.15708E-12-1.18996E-12
 -1       324 7.03579E+03 7.45772E+03 4.34483E+03 4.81030E+03-1.07536E-12 6.02792E-14
 -1       325 6.54821E+03 6.48673E+03 3.90766E+03 4.45520E+03 2.36445E-13 1.37924E-12
 -1       326 5.94331E+03 5.45852E+03 3.41817E+03 4.06269E+03-1.03627E-12-2.92286E-12
 -1       327 5.24086E+03 4.41893E+03 2.89599E+03 3.64473E+03-1.38690E-12 4.89139E-13
 -1       328 4.46895E+03 3.42687E+03 2.36718E+03 3.21947E+03 3.28615E-12-2.23668E-12
 -1       329 3.61846E+03 2.45586E+03 1.82110E+03 2.79061E+03-1.98319E-12 1.05595E-12
 -1       330 2.69732E+03 1.51355E+03 1.26240E+03 2.36650E+03-7.53047E-12 6.98318E-13
 -1       331 1.71629E+03 6.04283E+02 6.95587E+02 1.95508E+03-4.77787E-13 4.84600E-13
 -1       332 6.85961E+02-2.67673E+02 1.25134E+02 1.56233E+03-5.86835E-13 9.24417E-13
 -1       333-3.83112E+02-1.09848E+03-4.44651E+02 1.19443E+03-3.69024E-12-1.71656E-12
 -1       334-1.48744E+03-1.88892E+03-1.01297E+03 8.62226E+02 3.01339E-12 2.51300E-13
 -1       335-2.57968E+03-2.62185E+03-1.56045E+03 5.51300E+02-8.58183E-14-2.88317E-13
 -1       336-3.67653E+03-3.30913E+03-2.09567E+03 2.82773E+02 2.35016E-12-3.51840E-13
 -1       337-4.78606E+03-3.95868E+03-2.62345E+03 7.64900E+01-5.28667E-12 1.06316E-12
 -1       338-5.82710E+03-4.53973E+03-3.11017E+03-1.15283E+02 1.96265E-12-2.74109E-13
 -1       339-6.86811E+03-5.08758E+03-3.58697E+03-2.58237E+02 2.47817E-12-8.28500E-13
 -1       340-7.79613E+03-5.55849E+03-4.00679E+03-3.45790E+02 7.61861E-13 8.64410E-13
 -1       341-8.57950E+03-5.94397E+03-4.35759E+03-3.98856E+02 4.63507E-12-6.13119E-13
 -1       342-9.42249E+03-6.33726E+03-4.72869E+03-4.44090E+02-1.37188E-12-6.56519E-13
 -1       343-1.01596E+04-6.67192E+03-5.05040E+03-4.17828E+02 1.89785E-12 2.40640E-12
 -1       344-1.06800E+04-6.90272E+03-5.27591E+03-3.55056E+02-4.75766E-12 3.11379E-13
 -1       345-1.11488E+04-7.10700E+03-5.47800E+03-3.00267E+02 7.13481E-14-5.94054E-13
 -1       346-1.14853E+04-7.25045E+03-5.62207E+03-2.15914E+02 1.56706E-12-6.75121E-13
 -1       347-1.16770E+04-7.33028E+03-5.70358E+03-1.07692E+02 5.90948E-12 2.17019E-14
 -1       348-1.17482E+04-7.36038E+03-5.73401E+03-2.87563E-02-1.46348E-12-8.59347E-14
 -1       349-1.17006E+04-7.34055E+03-5.71377E+03 1.09119E+02-3.05521E-12 2.10485E-13
 -1       350-1.15105E+04-7.26150E+03-5.63297E+03 2.17568E+02 1.08182E-12 5.28190E-13
 -1       351-1.11482E+04-7.10696E+03-5.47777E+03 3.01197E+02-2.03165E-12-1.06723E-13
 -1       352-1.06700E+04-6.89930E+03-5.27186E+03 3.78570E+02 4.84894E-12 1.10453E-12
 -1       353-1.00784E+04-6.63676E+03-5.01547E+03 4.14709E+02-4.42324E-12-1.15529E-12
 -1       354-9.43846E+03-6.34454E+03-4.73567E+03 4.22259E+02-1.28637E-12-4.06633E-13
 -1       355-8.66018E+03-5.97825E+03-4.39211E+03 4.04748E+02 5.96117E-12-9.45289E-13
 -1       356-7.77283E+03-5.54839E+03-3.99676E+03 3.44754E+02-2.26005E-12-1.22000E-13
 -1       357-6.85082E+03-5.08013E+03-3.57953E+03 2.50513E+02 5.09083E-13 1.62260E-12
 -1       358-5.82642E+03-4.53964E+03-3.10993E+03 1.15438E+02 7.91613E-13-2.47801E-12
 -1       359-4.76605E+03-3.94996E+03-2.61483E+03-6.06186E+01 4.88404E-13-3.24560E-13
 -1       360-3.68684E+03-3.31409E+03-2.10027E+03-2.88635E+02-4.30605E-12 2.55257E-12
 -1       361-2.58945E+03-2.62632E+03-1.56472E+03-5.57174E+02 3.21313E-12-1.09895E-13
 -1       362-1.46193E+03-1.87798E+03-1.00202E+03-8.47563E+02-3.53950E-13-3.38221E-13
 -1       363-3.83483E+02-1.09832E+03-4.44717E+02-1.19456E+03-1.39632E-14 7.60871E-13
 -1       364 6.85250E+02-2.67974E+02 1.24831E+02-1.56222E+03-1.02445E-12-2.40159E-12
 -1       365 1.71614E+03 6.03661E+02 6.95356E+02-1.95469E+03-3.51670E-12 3.49210E-12
 -1       366 2.69767E+03 1.51353E+03 1.26249E+03-2.36663E+03 1.93023E-12-2.07189E-12
 -1       367 3.61770E+03 2.45579E+03 1.82085E+03-2.79067E+03-4.08404E-12-5.21159E-12
 -1       368 4.46854E+03 3.42658E+03 2.36698E+03-3.21915E+03 5.09222E-13 1.42699E-12
 -1       369 5.24095E+03 4.41845E+03 2.89587E+03-3.64472E+03-9.88293E-13 6.79022E-13
 -1       370 5.91959E+03 5.40358E+03 3.39459E+03-4.04949E+03 1.29323E-12-4.98867E-13
 -1       371 6.50493E+03 6.38586E+03 3.86446E+03-4.45388E+03 1.53743E-14 3.38920E-12
 -1       372 7.03221E+03 7.44714E+03 4.34056E+03-4.83940E+03-1.11310E-12-3.52582E-13
 -1       373 7.45054E+03 8.46736E+03 4.77170E+03-5.16835E+03 6.16930E-13-2.36427E-12
 -1       374 7.77089E+03 9.45788E+03 5.16454E+03-5.45537E+03-1.49947E-12-1.66209E-12
 -1       375 7.98621E+03 1.03852E+04 5.50694E+03-5.68254E+03 6.99425E-13 1.68269E-12
 -1       376 8.08049E+03 1.12023E+04 5.78005E+03-5.87496E+03 2.41289E-13 9.44729E-13
 -1       377 8.09943E+03 1.20078E+04 6.02703E+03-6.00983E+03 2.59589E-12 2.99475E-12
 -1       378 7.99496E+03 1.26592E+04 6.19088E+03-6.06061E+03-7.04722E-13-1.62711E-12
 -1       379 7.76731E+03 1.31513E+04 6.27007E+03-6.03103E+03 8.60818E-13 3.00283E-12
 -1       380 7.41843E+03 1.34618E+04 6.25853E+03-5.92290E+03 5.80969E-13 4.34418E-12
 -1       381 6.95135E+03 1.35683E+04 6.15043E+03-5.73823E+03-1.23491E-12 3.54110E-12
 -1       382 6.36698E+03 1.34427E+04 5.93762E+03-5.48102E+03 6.42914E-13 1.84662E-12
 -1       383 5.66913E+03 1.30591E+04 5.61348E+03-5.15781E+03-2.27967E-13 4.13980E-12
 -1       384 4.85595E+03 1.23955E+04 5.17086E+03-4.77242E+03 4.88261E-13-4.00297E-13
 -1       385 3.91641E+03 1.13990E+04 4.59058E+03-4.35074E+03-7.38602E-13-7.69701E-13
 -1       386 2.86104E+03 1.00779E+04 3.87825E+03-3.88024E+03 2.89250E-13 1.71558E-12
 -1       387 1.66357E+03 8.35653E+03 3.00326E+03-3.41065E+03-3.78854E-13-3.85348E-12
 -1       388 3.31739E+02 6.24889E+03 1.97211E+03-2.92359E+03-1.09613E-12 5.54676E-12
 -1       389-1.15400E+03 3.70262E+03 7.63126E+02-2.44681E+03 1.85300E-12-3.85711E-12
 -1       390-2.80894E+03 6.88900E+02-6.37017E+02-2.02251E+03-3.44080E-12 1.14103E-12
 -1       391-4.58503E+03-2.67480E+03-2.17878E+03-1.66191E+03 3.01046E-12-8.51759E-12
 -1       392-6.56862E+03-6.57603E+03-3.94443E+03-1.33233E+03 9.00192E-14 1.95890E-15
 -1       393-8.81854E+03-1.11340E+04-5.98773E+03-1.15382E+03-1.58516E-13 2.97247E-12
 -1       394-1.11514E+04-1.60012E+04-8.14932E+03-1.09652E+03-8.30768E-13 2.99517E-12
 -1       395-1.37586E+04-2.13268E+04-1.05318E+04-1.23100E+03 4.10309E-13-7.24962E-12
 -1       396-1.71278E+04-2.78648E+04-1.35100E+04-5.69209E+02 4.66866E-13 3.28255E-12
 -3
    1PSTEP                         3          17           1          
  100CL  101 1.000000000         396                     0    1           1
 -4  TOSTRAIN    6    1
 -5  EXX         1    4    1    1
 -5  EYY         1    4    2    2
 -5  EZZ         1    4    3    3
 -5  EXY         1    4    1    2
 -5  EYZ         1    4    2    3
 -5  EZX         1    4    3    1
 -1         1-2.86711E-07 2.04100E-03 1.43803E-38 9.30591E-04 5.75981E-20 1.28749E-19
 -1         2-2.86711E-07 2.04100E-03 1.60430E-38 9.30591E-04 6.30763E-20 1.26498E-19
 -1         3-2.86711E-07 2.04100E-03-2.17677E-38-9.30591E-04-7.34114E-20-7.47202E-20
 -1         4-2.86711E-07 2.04100E-03-2.11926E-38-9.30591E-04-7.34022E-20-8.01949E-20
 -1         5-3.79447E-04 1.89900E-03 3.82993E-37 3.44507E-04 1.44181E-19 3.30608E-19
 -1         6-3.45172E-04 1.58076E-03 7.79608E-38 2.74760E-04 2.36263E-19-1.01844E-19
 -1         7-3.13202E-04 1.24238E-03 4.69259E-38 2.94560E-04 9.76995E-20 1.84196E-19
 -1         8-2.90241E-04 9.41756E-04 6.69498E-37 2.94536E-04 1.03149E-19 5.74412E-19
 -1         9-2.69192E-04 6.68730E-04 4.43405E-37 2.74937E-04 3.06849E-19-1.58018E-19
 -1        10-2.53517E-04 4.18085E-04 2.69584E-37 2.49862E-04 2.51177E-19 5.42262E-20
 -1        11-2.43972E-04 2.04031E-04 4.15177E-37 2.11110E-04 5.17396E-19-1.27397E-19
 -1        12-2.40943E-04 1.17060E-05 1.32526E-36 1.64639E-04-1.25837E-19-1.07634E-18
 -1        13-2.44288E-04-1.53913E-04-6.93244E-37 1.15444E-04-3.31092E-19 4.84419E-19
 -1        14-2.53498E-04-2.87470E-04 7.92041E-38 6.42491E-05 2.45843E-19 2.67212E-19
 -1        15-2.67740E-04-4.00036E-04 8.59071E-37 1.04749E-05 3.42344E-20 1.48193E-19
 -1        16-2.86190E-04-4.89900E-04-4.22833E-37-3.93186E-05 1.55136E-20-7.83446E-20
 -1        17-3.07578E-04-5.53897E-04 1.95129E-37-8.69985E-05 1.79729E-19-6.59201E-19
 -1        18-3.30776E-04-5.99801E-04 1.14443E-37-1.28965E-04-1.80292E-19 1.19745E-19
 -1        19-3.54422E-04-6.23366E-04 4.85060E-38-1.64879E-04 1.00885E-19 2.66249E-19
 -1        20-3.77225E-04-6.30689E-04-1.23880E-38-1.93904E-04-1.13786E-19 1.17644E-19
 -1        21-3.97792E-04-6.22494E-04-6.33682E-39-2.15082E-04 2.11520E-20-2.04868E-19
 -1        22-4.14875E-04-6.00877E-04 1.04063E-37-2.27869E-04-5.84489E-20 4.27427E-19
 -1        23-4.27356E-04-5.67989E-04 6.58936E-38-2.32092E-04 7.34658E-20-3.09109E-19
 -1        24-4.33909E-04-5.26046E-04-7.04404E-38-2.27850E-04-9.06223E-20-1.29717E-19
 -1        25-4.32952E-04-4.78021E-04 1.11656E-39-2.15705E-04-6.57513E-20-1.52030E-19
 -1        26-4.24291E-04-4.26317E-04 3.03437E-37-1.97030E-04-8.91351E-20-3.11548E-19
 -1        27-4.08810E-04-3.76699E-04-5.10814E-38-1.70931E-04-7.68364E-20 2.00705E-19
 -1        28-3.86484E-04-3.24840E-04 1.30376E-37-1.40787E-04-1.96432E-19 3.69788E-19
 -1        29-3.57228E-04-2.73417E-04 2.12571E-38-1.07746E-04 1.24986E-19 2.74459E-19
 -1        30-3.21011E-04-2.26820E-04 7.86772E-38-7.10928E-05-1.30492E-19 1.85271E-19
 -1        31-2.78041E-04-1.85393E-04-2.07143E-38-3.26997E-05 1.06729E-21 9.86864E-20
 -1        32-2.28706E-04-1.48336E-04 8.17410E-37 6.62840E-06 1.17846E-20 6.80850E-19
 -1        33-1.73388E-04-1.14488E-04-2.64722E-38 4.62594E-05-3.78231E-19 1.11470E-19
 -1        34-1.12672E-04-8.67051E-05 1.09687E-37 8.44710E-05 3.37665E-19 8.36387E-20
 -1        35-4.72614E-05-6.45267E-05-4.69955E-38 1.20773E-04 1.27048E-19 2.68636E-19
 -1        36 2.20891E-05-4.81012E-05 3.80396E-38 1.54340E-04 7.50481E-20-1.53295E-19
 -1        37 9.46230E-05-3.72228E-05 2.07241E-37 1.84425E-04 3.72986E-19 3.12004E-20
 -1        38 1.70527E-04-3.16098E-05 5.32772E-39 2.10653E-04-3.39626E-20 2.56544E-19
 -1        39 2.44264E-04-3.08665E-05-1.15326E-37 2.32034E-04-1.57583E-19-1.24143E-19
 -1        40 3.19425E-04-3.44727E-05 3.31468E-37 2.46751E-04 6.07620E-19 2.37514E-19
 -1        41 4.00933E-04-4.19447E-05 4.12213E-37 2.57960E-04-6.30768E-19-1.70317E-19
 -1        42 4.72397E-04-5.25374E-05 2.76087E-37 2.64470E-04 4.06060E-19 1.34033E-19
 -1        43 5.40685E-04-6.54514E-05 1.60920E-37 2.61774E-04-1.90632E-19-3.06037E-19
 -1        44 6.10323E-04-8.00848E-05 3.27926E-37 2.55301E-04-3.04857E-19 1.88213E-19
 -1        45 6.74620E-04-9.56051E-05-2.49483E-37 2.44084E-04 9.26128E-21-4.68477E-20
 -1        46 7.31878E-04-1.11290E-04 5.30647E-37 2.26241E-04 5.67369E-19 4.58929E-20
 -1        47 7.83890E-04-1.26481E-04 1.87177E-37 2.01467E-04-5.59984E-19 1.96381E-19
 -1        48 8.33933E-04-1.40558E-04-1.84160E-37 1.76660E-04 1.39230E-19-1.39925E-19
 -1        49 8.69169E-04-1.52809E-04 6.14395E-37 1.47560E-04 8.97761E-19 7.13036E-20
 -1        50 8.94505E-04-1.62942E-04 5.79241E-37 1.12063E-04 3.91165E-20-9.61910E-21
 -1        51 9.20388E-04-1.70389E-04 5.45238E-37 7.57603E-05-4.01483E-19 1.34702E-20
 -1        52 9.34823E-04-1.74913E-04 1.68141E-37 3.87035E-05 5.60385E-19 4.40500E-20
 -1        53 9.37738E-04-1.76476E-04-1.33454E-38-6.34532E-09-2.51864E-19 3.00490E-21
 -1        54 9.33665E-04-1.74921E-04-1.52004E-38-3.85636E-05 7.76560E-20-1.97378E-20
 -1        55 9.18928E-04-1.70404E-04 2.26273E-39-7.55930E-05-3.74714E-19-5.86077E-20
 -1        56 8.99410E-04-1.62957E-04 1.22101E-37-1.12222E-04 3.46969E-20-3.88457E-20
 -1        57 8.69809E-04-1.52869E-04-1.52975E-37-1.44983E-04 2.49329E-19-5.91302E-20
 -1        58 8.29014E-04-1.40536E-04 3.69482E-38-1.76171E-04-6.96297E-19 1.35366E-19
 -1        59 7.82933E-04-1.26531E-04 1.04369E-38-2.03853E-04-2.33425E-19-1.98566E-19
 -1        60 7.31929E-04-1.11274E-04 6.69136E-37-2.26170E-04-7.96728E-19 9.41982E-21
 -1        61 6.74604E-04-9.55937E-05-1.00663E-37-2.44005E-04-1.71089E-19 7.71550E-20
 -1        62 6.11311E-04-8.00756E-05 1.18052E-37-2.56148E-04-3.09579E-20-1.29486E-19
 -1        63 5.45361E-04-6.54773E-05 4.88597E-37-2.62511E-04 3.86897E-19 4.48326E-19
 -1        64 4.72236E-04-5.24967E-05-1.61897E-38-2.62495E-04-3.31239E-19-1.55160E-19
 -1        65 3.95802E-04-4.19592E-05-9.10911E-38-2.57727E-04 2.09762E-19-8.65316E-20
 -1        66 3.23342E-04-3.45185E-05 1.97273E-37-2.48373E-04 2.85780E-19-1.79509E-19
 -1        67 2.47093E-04-3.08457E-05 3.87176E-38-2.30733E-04 1.64925E-19 1.42173E-19
 -1        68 1.67426E-04-3.15740E-05 3.59693E-38-2.09879E-04 1.49014E-19-1.50251E-19
 -1        69 9.46668E-05-3.71988E-05 2.06696E-37-1.84458E-04 2.13880E-19 3.14792E-19
 -1        70 2.21420E-05-4.81177E-05 2.16559E-37-1.54331E-04 2.61945E-19-2.65381E-19
 -1        71-4.72748E-05-6.45415E-05 1.03325E-37-1.20772E-04 7.80654E-20-1.44689E-19
 -1        72-1.12682E-04-8.66898E-05 3.10096E-37-8.44910E-05 2.99908E-19-3.00143E-19
 -1        73-1.73366E-04-1.14468E-04-8.11388E-38-4.62591E-05-1.37554E-19 1.73693E-20
 -1        74-2.28676E-04-1.47923E-04 8.15034E-37-6.91456E-06-1.55177E-19-7.60932E-19
 -1        75-2.78045E-04-1.85812E-04 4.75227E-38 3.24004E-05-2.97737E-19-6.77314E-20
 -1        76-3.20959E-04-2.30119E-04 4.57116E-37 6.96278E-05 3.28713E-20-3.45050E-19
 -1        77-3.57172E-04-2.76694E-04 1.30568E-38 1.05944E-04 1.43416E-19 1.69004E-19
 -1        78-3.86515E-04-3.25928E-04 5.32062E-39 1.40674E-04-1.77892E-19-2.66823E-19
 -1        79-4.08804E-04-3.76662E-04 2.52048E-37 1.71322E-04 1.69967E-19 1.62938E-19
 -1        80-4.24278E-04-4.25978E-04 1.69465E-38 1.97217E-04-4.52140E-20-3.01454E-19
 -1        81-4.32895E-04-4.78040E-04 1.39684E-38 2.15733E-04-4.18180E-20-1.80250E-19
 -1        82-4.33915E-04-5.26018E-04 4.61105E-37 2.27835E-04-1.56060E-20 5.81199E-19
 -1        83-4.27317E-04-5.68024E-04-1.44346E-37 2.32086E-04 2.43604E-20-3.04922E-19
 -1        84-4.14940E-04-6.00891E-04 4.72800E-38 2.27910E-04 6.81571E-20 3.52319E-19
 -1        85-3.97825E-04-6.22488E-04-1.59776E-38 2.15068E-04-7.08553E-20 3.21268E-20
 -1        86-3.77254E-04-6.30678E-04 7.89393E-38 1.93891E-04-4.61065E-20-7.87606E-20
 -1        87-3.54467E-04-6.23416E-04-9.98383E-38 1.64823E-04 1.90029E-19 4.69055E-19
 -1        88-3.30728E-04-5.99757E-04 9.78683E-37 1.28965E-04-5.27636E-20 1.54423E-19
 -1        89-3.07592E-04-5.53889E-04-1.02656E-37 8.69643E-05-7.85999E-20-3.24576E-20
 -1        90-2.86153E-04-4.89957E-04-1.69940E-37 3.93354E-05-6.89763E-20 1.19964E-20
 -1        91-2.67728E-04-4.00089E-04 4.06651E-37-1.04910E-05-1.96460E-20-1.65429E-19
 -1        92-2.53434E-04-2.87504E-04 1.04367E-36-6.42346E-05 5.71525E-19-6.22212E-19
 -1        93-2.44282E-04-1.53929E-04-5.19136E-37-1.15391E-04-1.02046E-19-1.44800E-19
 -1        94-2.40921E-04 1.16794E-05 2.39388E-36-1.64634E-04-2.65531E-19-3.31477E-19
 -1        95-2.43983E-04 2.04030E-04 9.65444E-38-2.11086E-04 6.65299E-19 1.91709E-19
 -1        96-2.53487E-04 4.18084E-04-6.58732E-38-2.49809E-04-5.06008E-21 4.77397E-19
 -1        97-2.69208E-04 6.68729E-04-3.49710E-38-2.74889E-04 2.49087E-19-4.00410E-20
 -1        98-2.90247E-04 9.41756E-04 2.64336E-36-2.94512E-04 5.29151E-20-7.20160E-19
 -1        99-3.13207E-04 1.24238E-03 2.13295E-37-2.94535E-04 2.09650E-19-3.42723E-19
 -1       100-3.45172E-04 1.58076E-03-6.67852E-38-2.74760E-04 4.43679E-20 7.32197E-19
 -1       101-3.79447E-04 1.89900E-03 1.26008E-37-3.44507E-04 1.20595E-19-3.06910E-19
 -1       102-3.79447E-04 1.89900E-03 3.60278E-37 3.44507E-04 1.35281E-19 3.24733E-19
 -1       103-3.45172E-04 1.58076E-03 8.42198E-38 2.74760E-04 2.14847E-19-9.98351E-20
 -1       104-3.13202E-04 1.24238E-03-4.53106E-38 2.94560E-04 8.73371E-20 1.43666E-19
 -1       105-2.90241E-04 9.41756E-04 8.39424E-37 2.94536E-04 1.27668E-19 6.84534E-19
 -1       106-2.69192E-04 6.68730E-04 5.07608E-37 2.74937E-04 3.08280E-19 7.96761E-21
 -1       107-2.53517E-04 4.18085E-04 3.85539E-37 2.49862E-04 2.23249E-19 8.51517E-20
 -1       108-2.43972E-04 2.04031E-04 3.39709E-37 2.11110E-04 5.14857E-19-5.49627E-19
 -1       109-2.40943E-04 1.17060E-05 1.94174E-36 1.64639E-04-1.71882E-19-8.47693E-19
 -1       110-2.44288E-04-1.53913E-04-7.63523E-37 1.15444E-04-3.27993E-19 6.65025E-19
 -1       111-2.53498E-04-2.87470E-04 5.39411E-37 6.42491E-05 2.24100E-19 3.43346E-19
 -1       112-2.67740E-04-4.00036E-04 4.15945E-37 1.04749E-05 7.36967E-20 2.89468E-19
 -1       113-2.86190E-04-4.89900E-04 2.35768E-37-3.93186E-05 5.94454E-20 4.41155E-19
 -1       114-3.07578E-04-5.53897E-04 3.43798E-38-8.69985E-05 1.24497E-19-8.55692E-20
 -1       115-3.30776E-04-5.99801E-04 2.12347E-38-1.28965E-04-1.10185E-19 6.22764E-20
 -1       116-3.54422E-04-6.23366E-04-3.53262E-38-1.64879E-04-1.90267E-20-3.28120E-20
 -1       117-3.77225E-04-6.30689E-04 6.81754E-39-1.93904E-04 3.70785E-20-1.21937E-20
 -1       118-3.97792E-04-6.22494E-04-8.44372E-38-2.15082E-04 1.72086E-20-1.47059E-19
 -1       119-4.14875E-04-6.00877E-04 1.77541E-37-2.27869E-04-8.41258E-20 2.93431E-19
 -1       120-4.27356E-04-5.67989E-04 1.71501E-37-2.32092E-04 7.27237E-20-9.69710E-20
 -1       121-4.33909E-04-5.26046E-04-5.10569E-38-2.27850E-04-1.04055E-19 1.93244E-20
 -1       122-4.32952E-04-4.78021E-04-3.96199E-39-2.15705E-04 7.79538E-20-1.45865E-21
 -1       123-4.24291E-04-4.26317E-04 3.97538E-38-1.97030E-04-1.92979E-19 4.76198E-19
 -1       124-4.08810E-04-3.76699E-04 3.44028E-38-1.70931E-04-2.77677E-20-3.19507E-19
 -1       125-3.86484E-04-3.24840E-04 1.02350E-38-1.40787E-04-1.00429E-19-6.70199E-20
 -1       126-3.57228E-04-2.73417E-04 6.83506E-39-1.07746E-04 1.06130E-19 2.75808E-20
 -1       127-3.21011E-04-2.26820E-04 3.27984E-37-7.10928E-05-1.53536E-19 3.13845E-20
 -1       128-2.78041E-04-1.85393E-04-1.12242E-37-3.26997E-05-2.29092E-20 2.69893E-20
 -1       129-2.28706E-04-1.48336E-04 7.58632E-37 6.62840E-06 1.62367E-20 6.65911E-19
 -1       130-1.73388E-04-1.14488E-04-5.92939E-38 4.62594E-05-3.15651E-19 1.38390E-19
 -1       131-1.12672E-04-8.67051E-05 3.19940E-37 8.44710E-05 2.42179E-19 2.75869E-19
 -1       132-4.72614E-05-6.45267E-05 1.39565E-37 1.20773E-04 7.09013E-19 4.86099E-21
 -1       133 2.20891E-05-4.81012E-05-5.17399E-38 1.54340E-04-1.33086E-19-1.43877E-19
 -1       134 9.46230E-05-3.72228E-05 3.34235E-37 1.84425E-04 3.58294E-19 1.33203E-19
 -1       135 1.70527E-04-3.16098E-05 2.30975E-38 2.10653E-04 2.41858E-19 2.18056E-19
 -1       136 2.44264E-04-3.08665E-05 2.04808E-38 2.32034E-04-1.78109E-19-2.03193E-19
 -1       137 3.19425E-04-3.44727E-05 9.91686E-38 2.46751E-04 1.14408E-19 1.93309E-19
 -1       138 4.00933E-04-4.19447E-05-1.13756E-37 2.57960E-04-9.27947E-21-1.26579E-19
 -1       139 4.72397E-04-5.25374E-05-1.46866E-37 2.64470E-04 1.58360E-19 1.58353E-19
 -1       140 5.40685E-04-6.54514E-05 1.52874E-37 2.61774E-04-1.89500E-19-3.03651E-19
 -1       141 6.10323E-04-8.00848E-05 3.40031E-37 2.55301E-04-5.02652E-19 1.64397E-19
 -1       142 6.74620E-04-9.56051E-05-2.90308E-38 2.44084E-04-6.39976E-20-2.38348E-20
 -1       143 7.31878E-04-1.11290E-04-9.70163E-38 2.26241E-04-2.85637E-19 6.79622E-21
 -1       144 7.83890E-04-1.26481E-04 3.20744E-37 2.01467E-04 4.55241E-19 2.11286E-19
 -1       145 8.33933E-04-1.40558E-04-1.00153E-37 1.76660E-04-1.35455E-19-9.19801E-20
 -1       146 8.69169E-04-1.52809E-04 1.05170E-37 1.47560E-04 6.16382E-19 5.90052E-20
 -1       147 8.94505E-04-1.62942E-04-4.55095E-38 1.12063E-04-4.22700E-19 5.22971E-22
 -1       148 9.20388E-04-1.70389E-04 4.63887E-37 7.57603E-05 8.26659E-19 3.99638E-21
 -1       149 9.34823E-04-1.74913E-04 7.14291E-38 3.87035E-05 3.69437E-20 4.43049E-20
 -1       150 9.37738E-04-1.76476E-04 5.05292E-39-6.34532E-09 3.54371E-20 3.83239E-21
 -1       151 9.33665E-04-1.74921E-04-8.58621E-38-3.85636E-05 6.17664E-21-2.57794E-20
 -1       152 9.18928E-04-1.70404E-04 7.72788E-38-7.55930E-05-5.15311E-19-5.42496E-20
 -1       153 8.99410E-04-1.62957E-04 1.31720E-36-1.12222E-04 1.45288E-18-4.40918E-20
 -1       154 8.69809E-04-1.52869E-04 2.19880E-37-1.44983E-04-3.28786E-19-6.22703E-20
 -1       155 8.29014E-04-1.40536E-04 2.10595E-37-1.76171E-04 7.28876E-19 1.38884E-19
 -1       156 7.82933E-04-1.26531E-04 1.50342E-37-2.03853E-04 4.93683E-19-2.06160E-19
 -1       157 7.31929E-04-1.11274E-04-9.91976E-38-2.26170E-04-3.98159E-19 5.01597E-21
 -1       158 6.74604E-04-9.55937E-05-3.87053E-38-2.44005E-04 9.78207E-20 5.31877E-20
 -1       159 6.11311E-04-8.00756E-05 2.37267E-37-2.56148E-04 2.59559E-19-1.18643E-19
 -1       160 5.45361E-04-6.54773E-05 1.39253E-37-2.62511E-04-3.16859E-19 4.60845E-19
 -1       161 4.72236E-04-5.24967E-05 2.11648E-38-2.62495E-04-1.04988E-19-1.67713E-19
 -1       162 3.95802E-04-4.19592E-05-2.86751E-39-2.57727E-04 2.91872E-19-1.31598E-19
 -1       163 3.23342E-04-3.45185E-05-3.11020E-38-2.48373E-04-1.46410E-19-1.72478E-19
 -1       164 2.47093E-04-3.08457E-05 8.73653E-39-2.30733E-04 4.60374E-20 1.72740E-19
 -1       165 1.67426E-04-3.15740E-05 1.61665E-37-2.09879E-04-2.59889E-20-2.14290E-19
 -1       166 9.46668E-05-3.71988E-05 1.70518E-37-1.84458E-04 4.11114E-19 6.70679E-20
 -1       167 2.21420E-05-4.81177E-05 1.09377E-37-1.54331E-04 3.68930E-19-1.28300E-19
 -1       168-4.72748E-05-6.45415E-05 1.62942E-37-1.20772E-04 1.74339E-19-9.19733E-20
 -1       169-1.12682E-04-8.66898E-05 6.87400E-37-8.44910E-05 5.11735E-19-2.17983E-19
 -1       170-1.73366E-04-1.14468E-04-1.09107E-38-4.62591E-05-5.97705E-20-1.70977E-19
 -1       171-2.28676E-04-1.47923E-04 8.83293E-37-6.91456E-06-1.53768E-19-6.72925E-19
 -1       172-2.78045E-04-1.85812E-04-2.54494E-37 3.24004E-05-3.44676E-19 1.07878E-19
 -1       173-3.20959E-04-2.30119E-04 5.96400E-37 6.96278E-05 8.73283E-20-4.62795E-19
 -1       174-3.57172E-04-2.76694E-04 5.88713E-38 1.05944E-04 9.96356E-20-3.14985E-19
 -1       175-3.86515E-04-3.25928E-04 3.86846E-38 1.40674E-04-1.69876E-19 9.30036E-20
 -1       176-4.08804E-04-3.76662E-04 9.16504E-38 1.71322E-04 1.99905E-19 1.15842E-19
 -1       177-4.24278E-04-4.25978E-04 9.00552E-38 1.97217E-04-5.54591E-20-2.78372E-19
 -1       178-4.32895E-04-4.78040E-04 4.24296E-38 2.15733E-04 3.23624E-20-1.42852E-19
 -1       179-4.33915E-04-5.26018E-04-1.51796E-37 2.27835E-04-8.92111E-20-3.65296E-19
 -1       180-4.27317E-04-5.68024E-04 6.47355E-38 2.32086E-04-3.26121E-21 1.45093E-19
 -1       181-4.14940E-04-6.00891E-04-7.71872E-38 2.27910E-04-1.65396E-20-3.73138E-19
 -1       182-3.97825E-04-6.22488E-04-1.50395E-38 2.15068E-04 2.24089E-20-1.14953E-19
 -1       183-3.77254E-04-6.30678E-04-1.46248E-37 1.93891E-04 2.21079E-20-1.69663E-19
 -1       184-3.54467E-04-6.23416E-04 2.02014E-37 1.64823E-04 6.82590E-20 5.14307E-19
 -1       185-3.30728E-04-5.99757E-04-5.12612E-38 1.28965E-04-3.36209E-20-6.66523E-19
 -1       186-3.07592E-04-5.53889E-04 8.95842E-38 8.69643E-05-2.41317E-20 2.01176E-19
 -1       187-2.86153E-04-4.89957E-04-1.40204E-37 3.93354E-05-2.37785E-20 1.40549E-19
 -1       188-2.67728E-04-4.00089E-04 1.16387E-36-1.04910E-05 2.79148E-20 3.22403E-20
 -1       189-2.53434E-04-2.87504E-04 1.21929E-36-6.42346E-05 5.50043E-19-7.05209E-19
 -1       190-2.44282E-04-1.53929E-04-3.80390E-37-1.15391E-04-9.08942E-20-3.78775E-19
 -1       191-2.40921E-04 1.16794E-05 1.34126E-36-1.64634E-04-2.50521E-19-2.02563E-19
 -1       192-2.43983E-04 2.04030E-04 2.11627E-37-2.11086E-04 6.77068E-19-3.85469E-20
 -1       193-2.53487E-04 4.18084E-04-5.75093E-38-2.49809E-04-5.39468E-20 7.70523E-19
 -1       194-2.69208E-04 6.68729E-04-1.50122E-39-2.74889E-04 2.60047E-19-1.47409E-19
 -1       195-2.90247E-04 9.41756E-04 2.41122E-36-2.94512E-04 5.97392E-20-7.30311E-19
 -1       196-3.13207E-04 1.24238E-03 2.32029E-37-2.94535E-04 2.15452E-19-3.62453E-19
 -1       197-3.45172E-04 1.58076E-03-9.01622E-38-2.74760E-04 5.55325E-20 7.14037E-19
 -1       198-3.79447E-04 1.89900E-03 1.26288E-37-3.44507E-04 1.23540E-19-3.09004E-19
 -1       199-3.27310E-07-1.77674E-03 4.60972E-38-5.12158E-04 1.36748E-19 1.65298E-19
 -1       200-3.27310E-07-1.77674E-03 4.59431E-38-5.12158E-04 1.36745E-19 1.66765E-19
 -1       201-3.27310E-07-1.77674E-03-8.22211E-39 5.12158E-04-4.21199E-20-1.71659E-20
 -1       202-3.27310E-07-1.77674E-03-8.66762E-39 5.12158E-04-4.35878E-20-1.65627E-20
 -1       203-3.93879E-04-1.55575E-03-1.17570E-37 6.46106E-05 2.12822E-20-1.73355E-19
 -1       204-3.51568E-04-1.16863E-03 2.54988E-38 1.36856E-04-1.32367E-19 2.97603E-19
 -1       205-3.27086E-04-8.49380E-04-1.31242E-38 1.21764E-04 8.06026E-20-1.59545E-19
 -1       206-3.08612E-04-5.55903E-04 3.49198E-37 1.26766E-04-6.09269E-20-5.58022E-19
 -1       207-2.86471E-04-2.83099E-04-2.12498E-38 1.44568E-04-8.59002E-20-1.39270E-19
 -1       208-2.63386E-04-5.12908E-05 6.21449E-38 1.78821E-04-8.55897E-20-2.14186E-19
 -1       209-2.38489E-04 1.46398E-04-4.83123E-37 2.16544E-04 1.56698E-20-1.24415E-19
 -1       210-2.11507E-04 3.21673E-04 2.99224E-36 2.61407E-04-4.20080E-20 1.94324E-18
 -1       211-1.82063E-04 4.66925E-04 1.04545E-36 3.12406E-04-6.88358E-20-7.87281E-19
 -1       212-1.49953E-04 5.83661E-04-3.01858E-38 3.64801E-04 6.03487E-21-1.63324E-19
 -1       213-1.15179E-04 6.75427E-04-1.97080E-37 4.15651E-04-1.15267E-19 4.21511E-20
 -1       214-7.80436E-05 7.41198E-04 4.55914E-37 4.66961E-04-3.46110E-20-4.16832E-19
 -1       215-3.88007E-05 7.85882E-04 4.25354E-37 5.13137E-04 3.60538E-20 4.83071E-19
 -1       216 1.82551E-06 8.09090E-04-1.14133E-39 5.55615E-04-4.39075E-20-5.76721E-19
 -1       217 4.31711E-05 8.14733E-04-4.61681E-38 5.91315E-04-1.58985E-21 1.16370E-19
 -1       218 8.43289E-05 8.04292E-04 1.24225E-37 6.19958E-04-2.87306E-20-3.03903E-19
 -1       219 1.24369E-04 7.79913E-04 6.48485E-38 6.40682E-04 2.64692E-20 1.77298E-19
 -1       220 1.62102E-04 7.43763E-04-8.73432E-38 6.52968E-04-4.01697E-20 1.03412E-20
 -1       221 1.96494E-04 6.97871E-04-4.33836E-38 6.56590E-04-9.33034E-20-2.55236E-19
 -1       222 2.26824E-04 6.44007E-04 3.06932E-37 6.51436E-04 1.27605E-19 3.94698E-19
 -1       223 2.52536E-04 5.82961E-04-4.11987E-39 6.37143E-04-2.53762E-20 6.57421E-20
 -1       224 2.72908E-04 5.22879E-04-7.61716E-38 6.16493E-04 8.38424E-20 3.67566E-20
 -1       225 2.87427E-04 4.57661E-04 1.90997E-38 5.91264E-04 7.60835E-20 4.83730E-20
 -1       226 2.95770E-04 3.90602E-04-2.23179E-38 5.57893E-04 1.71890E-19-1.57936E-19
 -1       227 2.97402E-04 3.30314E-04 1.83081E-37 5.20947E-04-1.17966E-19-4.07383E-19
 -1       228 2.92071E-04 2.72482E-04 1.98244E-38 4.82197E-04-3.02880E-20 1.45677E-19
 -1       229 2.79489E-04 2.14338E-04 1.71890E-37 4.39392E-04-1.42981E-19 1.18488E-19
 -1       230 2.59696E-04 1.58683E-04 6.40913E-37 3.93869E-04-1.96571E-19 3.74779E-19
 -1       231 2.32950E-04 1.09028E-04-2.65149E-37 3.47635E-04 3.54536E-19-2.52126E-19
 -1       232 1.99447E-04 6.36351E-05 3.78731E-37 3.01094E-04-2.75575E-19 3.56284E-19
 -1       233 1.59575E-04 2.27903E-05 5.52684E-37 2.55162E-04-3.84225E-19-3.05778E-19
 -1       234 1.14048E-04-1.35660E-05-1.62004E-37 2.10698E-04 9.42599E-20 1.81241E-19
 -1       235 6.35626E-05-4.54870E-05 6.69053E-38 1.68341E-04-3.19680E-19 3.09184E-19
 -1       236 8.82695E-06-7.30565E-05 1.84315E-37 1.28751E-04 2.52011E-19-3.51820E-19
 -1       237-4.98324E-05-9.64845E-05-4.07426E-39 9.30910E-05-4.81715E-20 1.79156E-20
 -1       238-1.09394E-04-1.15997E-04-8.12916E-38 5.97573E-05-2.59816E-19-9.56619E-20
 -1       239-1.70691E-04-1.31998E-04-1.19834E-37 3.10322E-05 2.36740E-19 1.47270E-20
 -1       240-2.34047E-04-1.44858E-04-6.77840E-38 9.05105E-06-2.33582E-19 1.20566E-19
 -1       241-2.94381E-04-1.54806E-04 9.06214E-38-1.14141E-05 1.91464E-19-3.32796E-20
 -1       242-3.55686E-04-1.62346E-04-1.37132E-37-2.66287E-05-4.97300E-20-8.40468E-20
 -1       243-4.10821E-04-1.67826E-04 1.93209E-37-3.59323E-05-2.03537E-19 1.37538E-19
 -1       244-4.57700E-04-1.71595E-04 2.23060E-38-4.16131E-05-1.85867E-19-1.05667E-19
 -1       245-5.08826E-04-1.74039E-04-7.44292E-38-4.64978E-05 1.29592E-19-7.82833E-20
 -1       246-5.53756E-04-1.75552E-04 1.54192E-37-4.37225E-05 1.30836E-19 3.53118E-19
 -1       247-5.85607E-04-1.76253E-04 1.63408E-39-3.71148E-05-5.03881E-19 2.42905E-20
 -1       248-6.14435E-04-1.76593E-04-2.52979E-37-3.14415E-05 1.45561E-19-6.82007E-20
 -1       249-6.35207E-04-1.76617E-04 6.17943E-37-2.26264E-05-8.21891E-19-6.97013E-20
 -1       250-6.47091E-04-1.76498E-04 5.90496E-37-1.12730E-05-1.24480E-18 8.30711E-23
 -1       251-6.51499E-04-1.76482E-04 1.26749E-37-3.01082E-09 6.24003E-19-8.22770E-21
 -1       252-6.48553E-04-1.76506E-04 1.74289E-37 1.14257E-05-6.87147E-19 2.17873E-20
 -1       253-6.36763E-04-1.76633E-04 6.04594E-37 2.28046E-05 8.60677E-19 5.75738E-20
 -1       254-6.14383E-04-1.76613E-04-4.70869E-38 3.15422E-05-1.09919E-19 1.11251E-20
 -1       255-5.84968E-04-1.76306E-04 4.97312E-38 3.96682E-05-4.85655E-19 8.14695E-20
 -1       256-5.48735E-04-1.75530E-04 6.87190E-38 4.34074E-05 5.64215E-19-1.29689E-19
 -1       257-5.09782E-04-1.74091E-04 1.50531E-37 4.41195E-05-3.17372E-20-4.81255E-20
 -1       258-4.62712E-04-1.71564E-04 8.34514E-38 4.22283E-05 5.99856E-19-9.73579E-20
 -1       259-4.09380E-04-1.67820E-04-9.72348E-38 3.58292E-05 1.36134E-19-5.57252E-20
 -1       260-3.54606E-04-1.62354E-04 3.09246E-37 2.57972E-05-1.75147E-19 1.80248E-19
 -1       261-2.94331E-04-1.54823E-04-5.91803E-40 1.14306E-05 2.04772E-19-2.43575E-19
 -1       262-2.32838E-04-1.44823E-04-1.51324E-37-7.32114E-06 8.61333E-20 2.21185E-20
 -1       263-1.71304E-04-1.32047E-04 3.91242E-37-3.16715E-05-4.26580E-19 2.56990E-19
 -1       264-1.09979E-04-1.16028E-04-1.20445E-37-6.03991E-05-2.40007E-19-5.50314E-20
 -1       265-4.82783E-05-9.64584E-05 1.67719E-37-9.14889E-05 2.60799E-19 3.40195E-22
 -1       266 8.79343E-06-7.30322E-05-1.08052E-38-1.28766E-04-6.94182E-20 7.34248E-20
 -1       267 6.35182E-05-4.54865E-05-3.24419E-38-1.68329E-04-9.78919E-20-2.03281E-19
 -1       268 1.14056E-04-1.36075E-05 4.16806E-38-2.10655E-04 1.08732E-19 3.70587E-19
 -1       269 1.59603E-04 2.27771E-05 1.16287E-37-2.55176E-04 2.15217E-19-7.09927E-20
 -1       270 1.99392E-04 6.36544E-05 6.23354E-37-3.01101E-04-4.92646E-19-4.24014E-19
 -1       271 2.32928E-04 1.09020E-04-1.62959E-37-3.47600E-04 1.74064E-19-8.23535E-21
 -1       272 2.59719E-04 1.58643E-04-4.89033E-38-3.93868E-04-1.61828E-19 7.95804E-20
 -1       273 2.79454E-04 2.10965E-04 1.94534E-37-4.37943E-04 8.93229E-20-1.75363E-19
 -1       274 2.92060E-04 2.66246E-04-1.42542E-37-4.82016E-04 7.78911E-20 2.87898E-20
 -1       275 2.97511E-04 3.29588E-04-2.52505E-38-5.24091E-04-1.30615E-19-7.56605E-20
 -1       276 2.95795E-04 3.93598E-04 8.83453E-38-5.60013E-04 6.66187E-20 3.87465E-19
 -1       277 2.87399E-04 4.58757E-04-6.44951E-38-5.91335E-04-1.52819E-19-1.10593E-19
 -1       278 2.72881E-04 5.22748E-04 2.49072E-38-6.16083E-04 6.77059E-20 1.66427E-19
 -1       279 2.52588E-04 5.82497E-04 8.73977E-38-6.36934E-04 2.06131E-20 2.37256E-19
 -1       280 2.26811E-04 6.43960E-04-8.18829E-38-6.51420E-04 2.26646E-19-1.13985E-19
 -1       281 1.96558E-04 6.97885E-04 7.08088E-38-6.56631E-04-4.14296E-20 1.78168E-19
 -1       282 1.62086E-04 7.43795E-04-4.18730E-38-6.52981E-04-1.57743E-19-3.29035E-19
 -1       283 1.24331E-04 7.79880E-04 5.86584E-38-6.40680E-04-2.26098E-21-3.00721E-19
 -1       284 8.43211E-05 8.04264E-04-1.05270E-37-6.19979E-04-4.13927E-20-1.17362E-19
 -1       285 4.30989E-05 8.14731E-04 4.81547E-37-5.91358E-04-1.64356E-19-5.46028E-19
 -1       286 1.84784E-06 8.09139E-04-4.03791E-37-5.55590E-04 1.73852E-20 1.96694E-19
 -1       287-3.88188E-05 7.85848E-04 3.15827E-37-5.13158E-04 1.57900E-19 1.16942E-19
 -1       288-7.80101E-05 7.41188E-04 3.80895E-37-4.66949E-04-3.90815E-20 2.38265E-19
 -1       289-1.15169E-04 6.75422E-04-1.64383E-37-4.15673E-04 9.31237E-20 3.31069E-20
 -1       290-1.49892E-04 5.83727E-04-8.44926E-38-3.64799E-04-9.34672E-20-1.14983E-19
 -1       291-1.82045E-04 4.66910E-04 2.82283E-37-3.12373E-04-1.39493E-19 4.93786E-19
 -1       292-2.11473E-04 3.21697E-04-1.56878E-39-2.61431E-04 2.10354E-19-4.14629E-19
 -1       293-2.38501E-04 1.46498E-04-2.93997E-37-2.16530E-04-3.67682E-19 1.70400E-19
 -1       294-2.63357E-04-5.12916E-05 1.14971E-36-1.78765E-04 2.57089E-19-8.07349E-19
 -1       295-2.86479E-04-2.83099E-04 2.44153E-38-1.44542E-04 5.05171E-20-7.93556E-21
 -1       296-3.08619E-04-5.55903E-04-6.44162E-37-1.26740E-04-8.38822E-21 3.38453E-19
 -1       297-3.27091E-04-8.49381E-04-5.12973E-38-1.21739E-04-7.75183E-20 2.42388E-19
 -1       298-3.51568E-04-1.16863E-03 4.42913E-37-1.36856E-04 1.30935E-20-7.68899E-19
 -1       299-3.93879E-04-1.55575E-03-4.30309E-38-6.46106E-05 5.84153E-20 3.50489E-19
 -1       300-3.93879E-04-1.55575E-03-1.09863E-37 6.46106E-05 1.96154E-20-1.69730E-19
 -1       301-3.51568E-04-1.16863E-03 1.35686E-38 1.36856E-04-1.06814E-19 2.73130E-19
 -1       302-3.27086E-04-8.49380E-04 6.10432E-39 1.21764E-04 7.30393E-20-1.50274E-19
 -1       303-3.08612E-04-5.55903E-04 3.77226E-37 1.26766E-04-7.78265E-20-6.17956E-19
 -1       304-2.86471E-04-2.83099E-04-2.72322E-38 1.44568E-04-8.63576E-20-1.94636E-19
 -1       305-2.63386E-04-5.12908E-05-1.72918E-38 1.78821E-04-7.54113E-20-2.25020E-19
 -1       306-2.38489E-04 1.46398E-04-2.32515E-37 2.16544E-04 3.15258E-21-5.54356E-20
 -1       307-2.11507E-04 3.21673E-04 2.71414E-36 2.61407E-04 5.56488E-20 1.78125E-18
 -1       308-1.82063E-04 4.66925E-04 8.70801E-37 3.12406E-04-4.27979E-20-1.04785E-18
 -1       309-1.49953E-04 5.83661E-04-4.99823E-37 3.64801E-04 4.91039E-20 1.19495E-19
 -1       310-1.15179E-04 6.75427E-04-1.05897E-37 4.15651E-04-1.46591E-19-7.68833E-20
 -1       311-7.80436E-05 7.41198E-04 9.09120E-38 4.66961E-04-5.10991E-20-4.15206E-19
 -1       312-3.88007E-05 7.85882E-04-6.37519E-38 5.13137E-04 6.50842E-20 1.39110E-19
 -1       313 1.82551E-06 8.09090E-04-9.62404E-38 5.55615E-04-4.55570E-20 2.95467E-20
 -1       314 4.31711E-05 8.14733E-04 2.56456E-37 5.91315E-04 1.32690E-19 3.31343E-19
 -1       315 8.43289E-05 8.04292E-04 8.79063E-38 6.19958E-04-9.08566E-20-2.53125E-19
 -1       316 1.24369E-04 7.79913E-04 1.15176E-37 6.40682E-04 1.69848E-20 4.27567E-19
 -1       317 1.62102E-04 7.43763E-04 2.65493E-38 6.52968E-04-1.43405E-20-3.82115E-19
 -1       318 1.96494E-04 6.97871E-04 3.23303E-38 6.56590E-04 1.26118E-19 2.03841E-19
 -1       319 2.26824E-04 6.44007E-04 1.41047E-37 6.51436E-04 2.95016E-20 2.07836E-19
 -1       320 2.52536E-04 5.82961E-04-2.26946E-39 6.37143E-04-3.32606E-20-3.40408E-20
 -1       321 2.72908E-04 5.22879E-04 2.51370E-38 6.16493E-04 1.17288E-19-2.33829E-19
 -1       322 2.87427E-04 4.57661E-04-1.79311E-38 5.91264E-04 4.70174E-20 1.06352E-19
 -1       323 2.95770E-04 3.90602E-04 6.29286E-38 5.57893E-04 1.26035E-19-1.28185E-19
 -1       324 2.97402E-04 3.30314E-04-2.65502E-38 5.20947E-04-1.16519E-19 5.86892E-21
 -1       325 2.92071E-04 2.72482E-04-8.63446E-38 4.82197E-04 2.45667E-20 1.49509E-19
 -1       326 2.79489E-04 2.14338E-04 1.91444E-37 4.39392E-04-1.09829E-19-3.17367E-19
 -1       327 2.59696E-04 1.58683E-04 1.27595E-37 3.93869E-04-1.50683E-19 5.17030E-20
 -1       328 2.32950E-04 1.09028E-04-5.28411E-38 3.47635E-04 3.57942E-19-2.39531E-19
 -1       329 1.99447E-04 6.36351E-05 4.09864E-38 3.01094E-04-2.15794E-19 1.12640E-19
 -1       330 1.59575E-04 2.27903E-05 5.64134E-37 2.55162E-04-8.16383E-19 6.89366E-20
 -1       331 1.14048E-04-1.35660E-05-8.97653E-38 2.10698E-04-5.22185E-20 5.20514E-20
 -1       332 6.35626E-05-4.54870E-05-1.03455E-37 1.68341E-04-6.44456E-20 9.96008E-20
 -1       333 8.82695E-06-7.30565E-05 9.81206E-38 1.28751E-04-3.98173E-19-1.89239E-19
 -1       334-4.98324E-05-9.64845E-05 9.71697E-38 9.30910E-05 3.26227E-19 2.98880E-20
 -1       335-1.09394E-04-1.15997E-04-5.07798E-38 5.97573E-05-9.02930E-21-3.12723E-20
 -1       336-1.70691E-04-1.31998E-04 1.24211E-37 3.10322E-05 2.54926E-19-3.61801E-20
 -1       337-2.34047E-04-1.44858E-04 4.95165E-37 9.05105E-06-5.73711E-19 1.11079E-19
 -1       338-2.94381E-04-1.54806E-04-4.17223E-38-1.14141E-05 2.12904E-19-2.82818E-20
 -1       339-3.55686E-04-1.62346E-04-5.15056E-38-2.66287E-05 2.69049E-19-8.80496E-20
 -1       340-4.10821E-04-1.67826E-04-2.49979E-38-3.59323E-05 8.19858E-20 9.41554E-20
 -1       341-4.57700E-04-1.71595E-04 1.57782E-37-4.16131E-05 5.02688E-19-6.38997E-20
 -1       342-5.08826E-04-1.74039E-04-1.17297E-37-4.64978E-05-1.48302E-19-7.18423E-20
 -1       343-5.53756E-04-1.75552E-04 2.02768E-37-4.37225E-05 2.04715E-19 2.61469E-19
 -1       344-5.85607E-04-1.76253E-04 1.13895E-37-3.71148E-05-5.15643E-19 3.20927E-20
 -1       345-6.14435E-04-1.76593E-04 2.57953E-38-3.14415E-05 7.87604E-21-6.43172E-20
 -1       346-6.35207E-04-1.76617E-04-2.80565E-37-2.26264E-05 1.70067E-19-7.27614E-20
 -1       347-6.47091E-04-1.76498E-04 4.15555E-38-1.12730E-05 6.40483E-19 2.92978E-21
 -1       348-6.51499E-04-1.76482E-04-3.49133E-38-3.01082E-09-1.58612E-19-9.35167E-21
 -1       349-6.48553E-04-1.76506E-04 3.84732E-37 1.14257E-05-3.31129E-19 2.31299E-20
 -1       350-6.36763E-04-1.76633E-04-2.90197E-37 2.28046E-05 1.17262E-19 5.71103E-20
 -1       351-6.14383E-04-1.76613E-04-3.09509E-37 3.15422E-05-2.20021E-19-1.09754E-20
 -1       352-5.84968E-04-1.76306E-04 1.59900E-37 3.96682E-05 5.25903E-19 1.18189E-19
 -1       353-5.48735E-04-1.75530E-04 5.15122E-38 4.34074E-05-4.79702E-19-1.23221E-19
 -1       354-5.09782E-04-1.74091E-04 7.40306E-38 4.41195E-05-1.39460E-19-4.32992E-20
 -1       355-4.62712E-04-1.71564E-04 2.91516E-37 4.22283E-05 6.45512E-19-1.05715E-19
 -1       356-4.09380E-04-1.67820E-04 1.01987E-37 3.58292E-05-2.44974E-19-1.17810E-20
 -1       357-3.54606E-04-1.62354E-04-1.77202E-38 2.57972E-05 5.62666E-20 1.75443E-19
 -1       358-2.94331E-04-1.54823E-04 1.38529E-38 1.14306E-05 8.39112E-20-2.68976E-19
 -1       359-2.32838E-04-1.44823E-04 5.46405E-39-7.32114E-06 5.26703E-20-3.55748E-20
 -1       360-1.71304E-04-1.32047E-04 4.72594E-37-3.16715E-05-4.64437E-19 2.80091E-19
 -1       361-1.09979E-04-1.16028E-04 1.66528E-37-6.03991E-05 3.48051E-19-1.47016E-20
 -1       362-4.82783E-05-9.64584E-05-4.72205E-38-9.14889E-05-3.86456E-20-3.63245E-20
 -1       363 8.79343E-06-7.30322E-05-4.75536E-38-1.28766E-04-8.04690E-22 8.24207E-20
 -1       364 6.35182E-05-4.54865E-05-4.24684E-38-1.68329E-04-1.13236E-19-2.59217E-19
 -1       365 1.14056E-04-1.36075E-05 3.49974E-38-2.10655E-04-3.77672E-19 3.81419E-19
 -1       366 1.59603E-04 2.27771E-05 3.01659E-37-2.55176E-04 2.07127E-19-2.26130E-19
 -1       367 1.99392E-04 6.36544E-05 6.06917E-37-3.01101E-04-4.47208E-19-5.60908E-19
 -1       368 2.32928E-04 1.09020E-04-1.78728E-37-3.47600E-04 5.64288E-20 1.54125E-19
 -1       369 2.59719E-04 1.58643E-04-1.43888E-37-3.93868E-04-1.06511E-19 7.44201E-20
 -1       370 2.79454E-04 2.10965E-04 1.93658E-37-4.37943E-04 1.39738E-19-5.49728E-20
 -1       371 2.92060E-04 2.66246E-04-1.39328E-37-4.82016E-04 4.25479E-21 3.67176E-19
 -1       372 2.97511E-04 3.29588E-04 5.83818E-38-5.24091E-04-1.20889E-19-3.74031E-20
 -1       373 2.95795E-04 3.93598E-04 1.05402E-38-5.60013E-04 6.52783E-20-2.56400E-19
 -1       374 2.87399E-04 4.58757E-04 3.91363E-39-5.91335E-04-1.63281E-19-1.79281E-19
 -1       375 2.72881E-04 5.22748E-04 2.43015E-38-6.16083E-04 7.65980E-20 1.81998E-19
 -1       376 2.52588E-04 5.82497E-04-2.65584E-39-6.36934E-04 2.65515E-20 1.02258E-19
 -1       377 2.26811E-04 6.43960E-04 2.27896E-37-6.51420E-04 2.81953E-19 3.23968E-19
 -1       378 1.96558E-04 6.97885E-04-1.28363E-37-6.56631E-04-7.65061E-20-1.76167E-19
 -1       379 1.62086E-04 7.43795E-04 4.52297E-37-6.52981E-04 9.36382E-20 3.25357E-19
 -1       380 1.24331E-04 7.79880E-04 7.78504E-38-6.40680E-04 6.28213E-20 4.70567E-19
 -1       381 8.43211E-05 8.04264E-04 3.86422E-37-6.19979E-04-1.34240E-19 3.83209E-19
 -1       382 4.30989E-05 8.14731E-04 2.93958E-39-5.91358E-04 6.92786E-20 2.00160E-19
 -1       383 1.84784E-06 8.09139E-04 8.44186E-38-5.55590E-04-2.60488E-20 4.48442E-19
 -1       384-3.88188E-05 7.85848E-04 5.29262E-37-5.13158E-04 5.28772E-20-4.32561E-20
 -1       385-7.80101E-05 7.41188E-04 2.47651E-38-4.66949E-04-7.95198E-20-8.37889E-20
 -1       386-1.15169E-04 6.75422E-04-4.04824E-37-4.15673E-04 3.03544E-20 1.86025E-19
 -1       387-1.49892E-04 5.83727E-04 1.57237E-37-3.64799E-04-3.87703E-20-4.17684E-19
 -1       388-1.82045E-04 4.66910E-04 2.43536E-37-3.12373E-04-1.22434E-19 6.00172E-19
 -1       389-2.11473E-04 3.21697E-04 2.65600E-37-2.61431E-04 2.03376E-19-4.16515E-19
 -1       390-2.38501E-04 1.46498E-04-3.21990E-37-2.16530E-04-3.73499E-19 1.21024E-19
 -1       391-2.63357E-04-5.12916E-05 1.34950E-36-1.78765E-04 3.32156E-19-9.20691E-19
 -1       392-2.86479E-04-2.83099E-04-4.86609E-39-1.44542E-04 9.78657E-21 2.71199E-22
 -1       393-3.08619E-04-5.55903E-04-5.95330E-37-1.26740E-04-1.89122E-20 3.22063E-19
 -1       394-3.27091E-04-8.49381E-04-1.58006E-38-1.21739E-04-9.13765E-20 3.24198E-19
 -1       395-3.51568E-04-1.16863E-03 4.75684E-37-1.36856E-04 4.71131E-20-7.85586E-19
 -1       396-3.93879E-04-1.55575E-03-3.95560E-38-6.46106E-05 4.98101E-20 3.56110E-19
 -3
    1PSTEP                         4          17           1          
  100CL  101 1.000000000         396                     0    1           1
 -4  ENER        1    1
 -5  ENER        1    1    0    0
 -1         1 3.79634E+01
 -1         2 3.79634E+01
 -1         3 3.79634E+01
 -1         4 3.79634E+01
 -1         5 1.86668E+01
 -1         6 1.57729E+01
 -1         7 1.07935E+01
 -1         8 7.18658E+00
 -1         9 4.67409E+00
 -1        10 2.84106E+00
 -1        11 1.70889E+00
 -1        12 1.09105E+00
 -1        13 8.99228E-01
 -1        14 9.88218E-01
 -1        15 1.29739E+00
 -1        16 1.75062E+00
 -1        17 2.19636E+00
 -1        18 2.66473E+00
 -1        19 3.00239E+00
 -1        20 3.24258E+00
 -1        21 3.34266E+00
 -1        22 3.29820E+00
 -1        23 3.11718E+00
 -1        24 2.81602E+00
 -1        25 2.42800E+00
 -1        26 1.95360E+00
 -1        27 1.52748E+00
 -1        28 1.12418E+00
 -1        29 7.16541E-01
 -1        30 3.93869E-01
 -1        31 1.69585E-01
 -1        32 4.87719E-02
 -1        33-1.34066E-03
 -1        34 4.75998E-02
 -1        35 1.87074E-01
 -1        36 4.09046E-01
 -1        37 7.02782E-01
 -1        38 1.06268E+00
 -1        39 1.44572E+00
 -1        40 1.85910E+00
 -1        41 2.35770E+00
 -1        42 2.78106E+00
 -1        43 3.18427E+00
 -1        44 3.60757E+00
 -1        45 4.02807E+00
 -1        46 4.40110E+00
 -1        47 4.67761E+00
 -1        48 5.01754E+00
 -1        49 5.22906E+00
 -1        50 5.31668E+00
 -1        51 5.51243E+00
 -1        52 5.61720E+00
 -1        53 5.61435E+00
 -1        54 5.58439E+00
 -1        55 5.47307E+00
 -1        56 5.39801E+00
 -1        57 5.23725E+00
 -1        58 4.97087E+00
 -1        59 4.67516E+00
 -1        60 4.36658E+00
 -1        61 4.03571E+00
 -1        62 3.63171E+00
 -1        63 3.23802E+00
 -1        64 2.77682E+00
 -1        65 2.30647E+00
 -1        66 1.89109E+00
 -1        67 1.46184E+00
 -1        68 1.04266E+00
 -1        69 7.03045E-01
 -1        70 4.09134E-01
 -1        71 1.86995E-01
 -1        72 4.77886E-02
 -1        73-1.37959E-03
 -1        74 4.61678E-02
 -1        75 1.92124E-01
 -1        76 4.40581E-01
 -1        77 7.33794E-01
 -1        78 1.11148E+00
 -1        79 1.51921E+00
 -1        80 1.95352E+00
 -1        81 2.43122E+00
 -1        82 2.81623E+00
 -1        83 3.11646E+00
 -1        84 3.29908E+00
 -1        85 3.34371E+00
 -1        86 3.24278E+00
 -1        87 3.00433E+00
 -1        88 2.66259E+00
 -1        89 2.19696E+00
 -1        90 1.75064E+00
 -1        91 1.29808E+00
 -1        92 9.87121E-01
 -1        93 8.99045E-01
 -1        94 1.09098E+00
 -1        95 1.70869E+00
 -1        96 2.84059E+00
 -1        97 4.67349E+00
 -1        98 7.18644E+00
 -1        99 1.07930E+01
 -1       100 1.57729E+01
 -1       101 1.86668E+01
 -1       102 1.86668E+01
 -1       103 1.57729E+01
 -1       104 1.07935E+01
 -1       105 7.18658E+00
 -1       106 4.67409E+00
 -1       107 2.84106E+00
 -1       108 1.70889E+00
 -1       109 1.09105E+00
 -1       110 8.99228E-01
 -1       111 9.88218E-01
 -1       112 1.29739E+00
 -1       113 1.75062E+00
 -1       114 2.19636E+00
 -1       115 2.66473E+00
 -1       116 3.00239E+00
 -1       117 3.24258E+00
 -1       118 3.34266E+00
 -1       119 3.29820E+00
 -1       120 3.11718E+00
 -1       121 2.81602E+00
 -1       122 2.42800E+00
 -1       123 1.95360E+00
 -1       124 1.52748E+00
 -1       125 1.12418E+00
 -1       126 7.16541E-01
 -1       127 3.93869E-01
 -1       128 1.69585E-01
 -1       129 4.87719E-02
 -1       130-1.34066E-03
 -1       131 4.75998E-02
 -1       132 1.87074E-01
 -1       133 4.09046E-01
 -1       134 7.02782E-01
 -1       135 1.06268E+00
 -1       136 1.44572E+00
 -1       137 1.85910E+00
 -1       138 2.35770E+00
 -1       139 2.78106E+00
 -1       140 3.18427E+00
 -1       141 3.60757E+00
 -1       142 4.02807E+00
 -1       143 4.40110E+00
 -1       144 4.67761E+00
 -1       145 5.01754E+00
 -1       146 5.22906E+00
 -1       147 5.31668E+00
 -1       148 5.51243E+00
 -1       149 5.61720E+00
 -1       150 5.61435E+00
 -1       151 5.58439E+00
 -1       152 5.47307E+00
 -1       153 5.39801E+00
 -1       154 5.23725E+00
 -1       155 4.97087E+00
 -1       156 4.67516E+00
 -1       157 4.36658E+00
 -1       158 4.03571E+00
 -1       159 3.63171E+00
 -1       160 3.23802E+00
 -1       161 2.77682E+00
 -1       162 2.30647E+00
 -1       163 1.89109E+00
 -1       164 1.46184E+00
 -1       165 1.04266E+00
 -1       166 7.03045E-01
 -1       167 4.09134E-01
 -1       168 1.86995E-01
 -1       169 4.77886E-02
 -1       170-1.37959E-03
 -1       171 4.61678E-02
 -1       172 1.92124E-01
 -1       173 4.40581E-01
 -1       174 7.33794E-01
 -1       175 1.11148E+00
 -1       176 1.51921E+00
 -1       177 1.95352E+00
 -1       178 2.43122E+00
 -1       179 2.81623E+00
 -1       180 3.11646E+00
 -1       181 3.29908E+00
 -1       182 3.34371E+00
 -1       183 3.24278E+00
 -1       184 3.00433E+00
 -1       185 2.66259E+00
 -1       186 2.19696E+00
 -1       187 1.75064E+00
 -1       188 1.29808E+00
 -1       189 9.87121E-01
 -1       190 8.99045E-01
 -1       191 1.09098E+00
 -1       192 1.70869E+00
 -1       193 2.84059E+00
 -1       194 4.67349E+00
 -1       195 7.18644E+00
 -1       196 1.07930E+01
 -1       197 1.57729E+01
 -1       198 1.86668E+01
 -1       199 1.18946E+01
 -1       200 1.18946E+01
 -1       201 1.18946E+01
 -1       202 1.18946E+01
 -1       203 1.90683E+01
 -1       204 9.58343E+00
 -1       205 5.56241E+00
 -1       206 3.06979E+00
 -1       207 1.63164E+00
 -1       208 1.29932E+00
 -1       209 1.57159E+00
 -1       210 2.27750E+00
 -1       211 3.24412E+00
 -1       212 4.32334E+00
 -1       213 5.35895E+00
 -1       214 6.31478E+00
 -1       215 7.14113E+00
 -1       216 7.78152E+00
 -1       217 8.26457E+00
 -1       218 8.55229E+00
 -1       219 8.66051E+00
 -1       220 8.59852E+00
 -1       221 8.37799E+00
 -1       222 8.01446E+00
 -1       223 7.49931E+00
 -1       224 6.99106E+00
 -1       225 6.36449E+00
 -1       226 5.66920E+00
 -1       227 5.02867E+00
 -1       228 4.39037E+00
 -1       229 3.70560E+00
 -1       230 3.03519E+00
 -1       231 2.42319E+00
 -1       232 1.85492E+00
 -1       233 1.34605E+00
 -1       234 9.08179E-01
 -1       235 5.49343E-01
 -1       236 2.74075E-01
 -1       237 9.69740E-02
 -1       238 7.41299E-04
 -1       239-3.04988E-02
 -1       240 6.04786E-02
 -1       241 2.10384E-01
 -1       242 4.18023E-01
 -1       243 6.49011E-01
 -1       244 8.75545E-01
 -1       245 1.19396E+00
 -1       246 1.46733E+00
 -1       247 1.69675E+00
 -1       248 1.95791E+00
 -1       249 2.08861E+00
 -1       250 2.16960E+00
 -1       251 2.21981E+00
 -1       252 2.19902E+00
 -1       253 2.12185E+00
 -1       254 1.91756E+00
 -1       255 1.68685E+00
 -1       256 1.44758E+00
 -1       257 1.20929E+00
 -1       258 9.22269E-01
 -1       259 6.36403E-01
 -1       260 4.04520E-01
 -1       261 1.87500E-01
 -1       262 5.17741E-02
 -1       263-7.14941E-03
 -1       264-5.69642E-03
 -1       265 8.18192E-02
 -1       266 2.78787E-01
 -1       267 5.49192E-01
 -1       268 9.07887E-01
 -1       269 1.34624E+00
 -1       270 1.85467E+00
 -1       271 2.42296E+00
 -1       272 3.03712E+00
 -1       273 3.66875E+00
 -1       274 4.32600E+00
 -1       275 5.05338E+00
 -1       276 5.73078E+00
 -1       277 6.37801E+00
 -1       278 6.98503E+00
 -1       279 7.48906E+00
 -1       280 8.01340E+00
 -1       281 8.37967E+00
 -1       282 8.59823E+00
 -1       283 8.65963E+00
 -1       284 8.55221E+00
 -1       285 8.26398E+00
 -1       286 7.78305E+00
 -1       287 7.14073E+00
 -1       288 6.31452E+00
 -1       289 5.35882E+00
 -1       290 4.32405E+00
 -1       291 3.24371E+00
 -1       292 2.27742E+00
 -1       293 1.57191E+00
 -1       294 1.29875E+00
 -1       295 1.63150E+00
 -1       296 3.06998E+00
 -1       297 5.56217E+00
 -1       298 9.58343E+00
 -1       299 1.90683E+01
 -1       300 1.90683E+01
 -1       301 9.58343E+00
 -1       302 5.56241E+00
 -1       303 3.06979E+00
 -1       304 1.63164E+00
 -1       305 1.29932E+00
 -1       306 1.57159E+00
 -1       307 2.27750E+00
 -1       308 3.24412E+00
 -1       309 4.32334E+00
 -1       310 5.35895E+00
 -1       311 6.31478E+00
 -1       312 7.14113E+00
 -1       313 7.78152E+00
 -1       314 8.26457E+00
 -1       315 8.55229E+00
 -1       316 8.66051E+00
 -1       317 8.59852E+00
 -1       318 8.37799E+00
 -1       319 8.01446E+00
 -1       320 7.49931E+00
 -1       321 6.99106E+00
 -1       322 6.36449E+00
 -1       323 5.66920E+00
 -1       324 5.02867E+00
 -1       325 4.39037E+00
 -1       326 3.70560E+00
 -1       327 3.03519E+00
 -1       328 2.42319E+00
 -1       329 1.85492E+00
 -1       330 1.34605E+00
 -1       331 9.08179E-01
 -1       332 5.49343E-01
 -1       333 2.74075E-01
 -1       334 9.69740E-02
 -1       335 7.41299E-04
 -1       336-3.04988E-02
 -1       337 6.04786E-02
 -1       338 2.10384E-01
 -1       339 4.18023E-01
 -1       340 6.49011E-01
 -1       341 8.75545E-01
 -1       342 1.19396E+00
 -1       343 1.46733E+00
 -1       344 1.69675E+00
 -1       345 1.95791E+00
 -1       346 2.08861E+00
 -1       347 2.16960E+00
 -1       348 2.21981E+00
 -1       349 2.19902E+00
 -1       350 2.12185E+00
 -1       351 1.91756E+00
 -1       352 1.68685E+00
 -1       353 1.44758E+00
 -1       354 1.20929E+00
 -1       355 9.22269E-01
 -1       356 6.36403E-01
 -1       357 4.04520E-01
 -1       358 1.87500E-01
 -1       359 5.17741E-02
 -1       360-7.14941E-03
 -1       361-5.69642E-03
 -1       362 8.18192E-02
 -1       363 2.78787E-01
 -1       364 5.49192E-01
 -1       365 9.07887E-01
 -1       366 1.34624E+00
 -1       367 1.85467E+00
 -1       368 2.42296E+00
 -1       369 3.03712E+00
 -1       370 3.66875E+00
 -1       371 4.32600E+00
 -1       372 5.05338E+00
 -1       373 5.73078E+00
 -1       374 6.37801E+00
 -1       375 6.98503E+00
 -1       376 7.48906E+00
 -1       377 8.01340E+00
 -1       378 8.37967E+00
 -1       379 8.59823E+00
 -1       380 8.65963E+00
 -1       381 8.55221E+00
 -1       382 8.26398E+00
 -1       383 7.78305E+00
 -1       384 7.14073E+00
 -1       385 6.31452E+00
 -1       386 5.35882E+00
 -1       387 4.32405E+00
 -1       388 3.24371E+00
 -1       389 2.27742E+00
 -1       390 1.57191E+00
 -1       391 1.29875E+00
 -1       392 1.63150E+00
 -1       393 3.06998E+00
 -1       394 5.56217E+00
 -1       395 9.58343E+00
 -1       396 1.90683E+01
 -3
 9999
